$*$$$$$$$$$$$$$$$$$$$$$$$$$$$$$$$$$$$$$$$$$$$$$$$$$$$$$$$$$$$$$$$$$
$*
$*                    Simcenter v11.0.0.33 Translator
$*                    for NX Nastran version 11.0
$*
$*             FEM FILE: C:\Users\Patricio Whittingslo\Desktop\modeled parts\tseartrim_fem1.fem
$*             SIM FILE: C:\Users\Patricio Whittingslo\Desktop\modeled parts\tseartrim_sim1.sim
$*        ANALYSIS TYPE: Structural
$*        SOLUTION NAME: Solution 1
$*        SOLUTION TYPE: SOL 101 Linear Statics - Global Constraints
$*
$*    SOLVER INPUT FILE: tseartrim_sim1-solution_1.dat
$*        CREATION DATE: 18-Jan-2019
$*        CREATION TIME: 19:16:23
$*             HOSTNAME: PAT-SURFACE
$*      NASTRAN LICENSE: Desktop Bundle
$*
$*                UNITS: mm (milli-newton)
$*                      ... LENGTH : mm
$*                      ... TIME   : sec
$*                      ... MASS   : kilogram (kg)
$*                      ... TEMPERATURE : deg Celsius
$*                      ... FORCE  : milli-newton
$*                      ... THERMAL ENERGY : mN-mm (micro-joule)
$*
$* IMPORTANT NOTE:
$*     This banner was generated by Simcenter and altering this 
$*     information may compromise the pre and post processing of results
$*
$*$$$$$$$$$$$$$$$$$$$$$$$$$$$$$$$$$$$$$$$$$$$$$$$$$$$$$$$$$$$$$$$$$
$*
$*$$$$$$$$$$$$$$$$$$$$$$$$$$$$$$$$$$$
$*
$* FILE MANAGEMENT
$*
$*$$$$$$$$$$$$$$$$$$$$$$$$$$$$$$$$$$$
$*
$*
$*$$$$$$$$$$$$$$$$$$$$$$$$$$$$$$$$$$$
$*
$* EXECUTIVE CONTROL
$*
$*$$$$$$$$$$$$$$$$$$$$$$$$$$$$$$$$$$$
$*
ID,NASTRAN,tseartrim_sim1-solution_1
SOL 101
CEND
$*
$*$$$$$$$$$$$$$$$$$$$$$$$$$$$$$$$$$$$
$*
$* CASE CONTROL
$*
$*$$$$$$$$$$$$$$$$$$$$$$$$$$$$$$$$$$$
$*
ECHO = NONE
SPC = 1
OUTPUT
DISPLACEMENT(PLOT,REAL) = ALL
SPCFORCES(PLOT,REAL) = ALL
STRESS(PLOT,REAL,VONMISES,CENTER) = ALL
$*  Step: Subcase - Static Loads 1
SUBCASE 1
LABEL = Subcase - Static Loads 1
LOAD = 2
$*
$*$$$$$$$$$$$$$$$$$$$$$$$$$$$$$$$$$$$
$*
$* BULK DATA
$*
$*$$$$$$$$$$$$$$$$$$$$$$$$$$$$$$$$$$$
$*
BEGIN BULK
$*
$* PARAM CARDS
$*
PARAM      K6ROT100.0000
PARAM     OIBULK     YES
PARAM    OMACHPR     YES
PARAM       POST      -2
PARAM    POSTEXT     YES
PARAM    UNITSYS   MN-MM
$*
$* GRID CARDS
$*
GRID*               1381               07.5000000000E+000.0000000000E+00+
*     5.0000000000E+00               0
GRID*               1382               07.5000000000E+000.0000000000E+00+
*       0.0000000000E+00               0
GRID*               1383               07.5000000000E+008.0000000000E+00+
*       0.0000000000E+00               0
GRID*               1384               07.5000000000E+008.0000000000E+00+
*       5.0000000000E+00               0
GRID*               2519               01.4699999809E+011.2256862192E-13+
*       2.2764201164E+00               0
GRID*               2520               01.4699999809E+018.0000000000E+00+
*       2.2764201164E+00               0
GRID*               2521               01.4699999809E+016.1433497178E-14+
*       0.0000000000E+00               0
GRID*               2522               01.4699999809E+018.0000000000E+00+
*       0.0000000000E+00               0
GRID*               1294               07.5000000000E+000.0000000000E+00+
*       4.0000000000E+00               0
GRID*               1295               07.5000000000E+000.0000000000E+00+
*       3.0000000000E+00               0
GRID*               1296               07.5000000000E+000.0000000000E+00+
*       2.0000000000E+00               0
GRID*               1297               07.5000000000E+000.0000000000E+00+
*       1.0000000000E+00               0
GRID*               1298               07.5000000000E+000.0000000000E+00+
*       4.5000000000E+00               0
GRID*               1299               07.5000000000E+000.0000000000E+00+
*       3.5000000000E+00               0
GRID*               1300               07.5000000000E+000.0000000000E+00+
*       2.5000000000E+00               0
GRID*               1301               07.5000000000E+000.0000000000E+00+
*       1.5000000000E+00               0
GRID*               1302               07.5000000000E+000.0000000000E+00+
*       5.0000000000E-01               0
GRID*               1303               07.5000000000E+007.0000000000E+00+
*       0.0000000000E+00               0
GRID*               1304               07.5000000000E+006.0000000000E+00+
*       0.0000000000E+00               0
GRID*               1305               07.5000000000E+005.0000000000E+00+
*       0.0000000000E+00               0
GRID*               1306               07.5000000000E+004.0000000000E+00+
*       0.0000000000E+00               0
GRID*               1307               07.5000000000E+003.0000000000E+00+
*       0.0000000000E+00               0
GRID*               1308               07.5000000000E+002.0000000000E+00+
*       0.0000000000E+00               0
GRID*               1309               07.5000000000E+001.0000000000E+00+
*       0.0000000000E+00               0
GRID*               1310               07.5000000000E+005.0000000000E-01+
*       0.0000000000E+00               0
GRID*               1311               07.5000000000E+001.5000000000E+00+
*       0.0000000000E+00               0
GRID*               1312               07.5000000000E+002.5000000000E+00+
*       0.0000000000E+00               0
GRID*               1313               07.5000000000E+003.5000000000E+00+
*       0.0000000000E+00               0
GRID*               1314               07.5000000000E+004.5000000000E+00+
*       0.0000000000E+00               0
GRID*               1315               07.5000000000E+005.5000000000E+00+
*       0.0000000000E+00               0
GRID*               1316               07.5000000000E+006.5000000000E+00+
*       0.0000000000E+00               0
GRID*               1317               07.5000000000E+007.5000000000E+00+
*       0.0000000000E+00               0
GRID*               1318               07.5000000000E+001.0000000000E+00+
*       5.0000000000E+00               0
GRID*               1319               07.5000000000E+002.0000000000E+00+
*       5.0000000000E+00               0
GRID*               1320               07.5000000000E+003.0000000000E+00+
*       5.0000000000E+00               0
GRID*               1321               07.5000000000E+004.0000000000E+00+
*       5.0000000000E+00               0
GRID*               1322               07.5000000000E+005.0000000000E+00+
*       5.0000000000E+00               0
GRID*               1323               07.5000000000E+006.0000000000E+00+
*       5.0000000000E+00               0
GRID*               1324               07.5000000000E+007.0000000000E+00+
*       5.0000000000E+00               0
GRID*               1325               07.5000000000E+007.5000000000E+00+
*       5.0000000000E+00               0
GRID*               1326               07.5000000000E+006.5000000000E+00+
*       5.0000000000E+00               0
GRID*               1327               07.5000000000E+005.5000000000E+00+
*       5.0000000000E+00               0
GRID*               1328               07.5000000000E+004.5000000000E+00+
*       5.0000000000E+00               0
GRID*               1329               07.5000000000E+003.5000000000E+00+
*       5.0000000000E+00               0
GRID*               1330               07.5000000000E+002.5000000000E+00+
*       5.0000000000E+00               0
GRID*               1331               07.5000000000E+001.5000000000E+00+
*       5.0000000000E+00               0
GRID*               1332               07.5000000000E+005.0000000000E-01+
*       5.0000000000E+00               0
GRID*               1333               07.5000000000E+008.0000000000E+00+
*       1.0000000000E+00               0
GRID*               1334               07.5000000000E+008.0000000000E+00+
*       2.0000000000E+00               0
GRID*               1335               07.5000000000E+008.0000000000E+00+
*       3.0000000000E+00               0
GRID*               1336               07.5000000000E+008.0000000000E+00+
*       4.0000000000E+00               0
GRID*               1337               07.5000000000E+008.0000000000E+00+
*       4.5000000000E+00               0
GRID*               1338               07.5000000000E+008.0000000000E+00+
*       5.0000000000E-01               0
GRID*               1339               07.5000000000E+008.0000000000E+00+
*       1.5000000000E+00               0
GRID*               1340               07.5000000000E+008.0000000000E+00+
*       2.5000000000E+00               0
GRID*               1341               07.5000000000E+008.0000000000E+00+
*       3.5000000000E+00               0
GRID*               2427               01.3735843391E+010.0000000000E+00+
*       2.4069620712E+00               0
GRID*               2428               01.2782178168E+010.0000000000E+00+
*       2.5997350764E+00               0
GRID*               2429               01.1843016463E+010.0000000000E+00+
*       2.8539280565E+00               0
GRID*               2430               01.0922309535E+010.0000000000E+00+
*       3.1684714652E+00               0
GRID*               2431               01.0023931223E+010.0000000000E+00+
*       3.5420423526E+00               0
GRID*               2432               09.1516612195E+000.0000000000E+00+
*       3.9730688271E+00               0
GRID*               2433               08.3091692548E+000.0000000000E+00+
*       4.4597371801E+00               0
GRID*               2434               01.4216862916E+013.8781537855E-14+
*       2.3338718871E+00               0
GRID*               2435               01.1380112092E+010.0000000000E+00+
*       3.0037329365E+00               0
GRID*               2436               01.2310535726E+010.0000000000E+00+
*       2.7192146424E+00               0
GRID*               2437               07.9002031431E+000.0000000000E+00+
*       4.7233062907E+00               0
GRID*               2438               01.0470090749E+010.0000000000E+00+
*       3.3479711427E+00               0
GRID*               2439               09.5843004534E+000.0000000000E+00+
*       3.7504811989E+00               0
GRID*               2440               01.3257447341E+010.0000000000E+00+
*       2.4956141139E+00               0
GRID*               2441               08.7264682715E+000.0000000000E+00+
*       4.2095702415E+00               0
GRID*               2442               01.3735843391E+018.0000000000E+00+
*       2.4069620712E+00               0
GRID*               2443               01.2782178168E+018.0000000000E+00+
*       2.5997350764E+00               0
GRID*               2444               01.1843016463E+018.0000000000E+00+
*       2.8539280565E+00               0
GRID*               2445               01.0922309535E+018.0000000000E+00+
*       3.1684714652E+00               0
GRID*               2446               01.0023931223E+018.0000000000E+00+
*       3.5420423526E+00               0
GRID*               2447               09.1516612195E+008.0000000000E+00+
*       3.9730688271E+00               0
GRID*               2448               08.3091692548E+008.0000000000E+00+
*       4.4597371801E+00               0
GRID*               2449               01.4216862916E+018.0000000000E+00+
*       2.3338718871E+00               0
GRID*               2450               01.1380112092E+018.0000000000E+00+
*       3.0037329365E+00               0
GRID*               2451               01.2310535726E+018.0000000000E+00+
*       2.7192146424E+00               0
GRID*               2452               07.9002031431E+008.0000000000E+00+
*       4.7233062907E+00               0
GRID*               2453               01.0470090749E+018.0000000000E+00+
*       3.3479711427E+00               0
GRID*               2454               09.5843004534E+008.0000000000E+00+
*       3.7504811989E+00               0
GRID*               2455               01.3257447341E+018.0000000000E+00+
*       2.4956141139E+00               0
GRID*               2456               08.7264682715E+008.0000000000E+00+
*       4.2095702415E+00               0
GRID*               2457               08.5285714013E+003.4030217096E-15+
*       0.0000000000E+00               0
GRID*               2458               09.5571428026E+001.2179235592E-14+
*       0.0000000000E+00               0
GRID*               2459               01.0585714204E+012.4179364779E-14+
*       0.0000000000E+00               0
GRID*               2460               01.1614285605E+013.7254132400E-14+
*       0.0000000000E+00               0
GRID*               2461               01.2642857007E+014.9254261586E-14+
*       0.0000000000E+00               0
GRID*               2462               01.3671428408E+015.8030475469E-14+
*       0.0000000000E+00               0
GRID*               2463               01.4185714109E+016.0537965149E-14+
*       0.0000000000E+00               0
GRID*               2464               01.2128571306E+014.3522856601E-14+
*       0.0000000000E+00               0
GRID*               2465               01.1099999905E+013.0716748589E-14+
*       0.0000000000E+00               0
GRID*               2466               08.0142857007E+000.0000000000E+00+
*       0.0000000000E+00               0
GRID*               2467               01.0071428503E+011.7910640577E-14+
*       0.0000000000E+00               0
GRID*               2468               09.0428571020E+007.2538094336E-15+
*       0.0000000000E+00               0
GRID*               2469               01.3157142707E+015.4179687745E-14+
*       0.0000000000E+00               0
GRID*               2470               08.5285714013E+008.0000000000E+00+
*       0.0000000000E+00               0
GRID*               2471               09.5571428026E+008.0000000000E+00+
*       0.0000000000E+00               0
GRID*               2472               01.0585714204E+018.0000000000E+00+
*       0.0000000000E+00               0
GRID*               2473               01.1614285605E+018.0000000000E+00+
*       0.0000000000E+00               0
GRID*               2474               01.2642857007E+018.0000000000E+00+
*       0.0000000000E+00               0
GRID*               2475               01.3671428408E+018.0000000000E+00+
*       0.0000000000E+00               0
GRID*               2476               01.4185714109E+018.0000000000E+00+
*       0.0000000000E+00               0
GRID*               2477               01.2128571306E+018.0000000000E+00+
*       0.0000000000E+00               0
GRID*               2478               01.1099999905E+018.0000000000E+00+
*       0.0000000000E+00               0
GRID*               2479               08.0142857007E+008.0000000000E+00+
*       0.0000000000E+00               0
GRID*               2480               01.0071428503E+018.0000000000E+00+
*       0.0000000000E+00               0
GRID*               2481               09.0428571020E+008.0000000000E+00+
*       0.0000000000E+00               0
GRID*               2482               01.3157142707E+018.0000000000E+00+
*       0.0000000000E+00               0
GRID*               2483               01.4699999809E+019.2001059548E-14+
*       1.1382100582E+00               0
GRID*               2484               01.4699999809E+017.0985860419E-14+
*       5.6910502911E-01               0
GRID*               2485               01.4699999809E+011.1301625868E-13+
*       1.7073150873E+00               0
GRID*               2486               01.4699999809E+017.0000000000E+00+
*       0.0000000000E+00               0
GRID*               2487               01.4699999809E+016.0000000000E+00+
*       0.0000000000E+00               0
GRID*               2488               01.4699999809E+015.0000000000E+00+
*       0.0000000000E+00               0
GRID*               2489               01.4699999809E+014.0000000000E+00+
*       0.0000000000E+00               0
GRID*               2490               01.4699999809E+013.0000000000E+00+
*       0.0000000000E+00               0
GRID*               2491               01.4699999809E+012.0000000000E+00+
*       0.0000000000E+00               0
GRID*               2492               01.4699999809E+011.0000000000E+00+
*       0.0000000000E+00               0
GRID*               2493               01.4699999809E+017.5000000000E+00+
*       0.0000000000E+00               0
GRID*               2494               01.4699999809E+016.5000000000E+00+
*       0.0000000000E+00               0
GRID*               2495               01.4699999809E+015.5000000000E+00+
*       0.0000000000E+00               0
GRID*               2496               01.4699999809E+014.5000000000E+00+
*       0.0000000000E+00               0
GRID*               2497               01.4699999809E+013.5000000000E+00+
*       0.0000000000E+00               0
GRID*               2498               01.4699999809E+012.5000000000E+00+
*       0.0000000000E+00               0
GRID*               2499               01.4699999809E+011.5000000000E+00+
*       0.0000000000E+00               0
GRID*               2500               01.4699999809E+015.0000000000E-01+
*       0.0000000000E+00               0
GRID*               2501               01.4699999809E+011.0000000000E+00+
*       2.2764201164E+00               0
GRID*               2502               01.4699999809E+012.0000000000E+00+
*       2.2764201164E+00               0
GRID*               2503               01.4699999809E+013.0000000000E+00+
*       2.2764201164E+00               0
GRID*               2504               01.4699999809E+014.0000000000E+00+
*       2.2764201164E+00               0
GRID*               2505               01.4699999809E+015.0000000000E+00+
*       2.2764201164E+00               0
GRID*               2506               01.4699999809E+016.0000000000E+00+
*       2.2764201164E+00               0
GRID*               2507               01.4699999809E+017.0000000000E+00+
*       2.2764201164E+00               0
GRID*               2508               01.4699999809E+015.0000000000E-01+
*       2.2764201164E+00               0
GRID*               2509               01.4699999809E+011.5000000000E+00+
*       2.2764201164E+00               0
GRID*               2510               01.4699999809E+012.5000000000E+00+
*       2.2764201164E+00               0
GRID*               2511               01.4699999809E+013.5000000000E+00+
*       2.2764201164E+00               0
GRID*               2512               01.4699999809E+014.5000000000E+00+
*       2.2764201164E+00               0
GRID*               2513               01.4699999809E+015.5000000000E+00+
*       2.2764201164E+00               0
GRID*               2514               01.4699999809E+016.5000000000E+00+
*       2.2764201164E+00               0
GRID*               2515               01.4699999809E+017.5000000000E+00+
*       2.2764201164E+00               0
GRID*               2516               01.4699999809E+018.0000000000E+00+
*       1.1382100582E+00               0
GRID*               2517               01.4699999809E+018.0000000000E+00+
*       5.6910502911E-01               0
GRID*               2518               01.4699999809E+018.0000000000E+00+
*       1.7073150873E+00               0
GRID*               2098               08.3091699302E+007.0000000773E+00+
*       4.4597367731E+00               0
GRID*               2099               09.1516633488E+007.0000002338E+00+
*       3.9730676824E+00               0
GRID*               2100               01.0023933907E+017.0000002862E+00+
*       3.5420410932E+00               0
GRID*               2101               01.0922309535E+017.0000000000E+00+
*       3.1684714652E+00               0
GRID*               2102               01.1843017223E+017.0000000758E+00+
*       2.8539278328E+00               0
GRID*               2103               01.2782180517E+017.0000002236E+00+
*       2.5997345226E+00               0
GRID*               2104               01.3735846309E+017.0000002851E+00+
*       2.4069615405E+00               0
GRID*               2105               08.3091715901E+006.0000002623E+00+
*       4.4597357724E+00               0
GRID*               2106               09.1516672361E+006.0000006550E+00+
*       3.9730655922E+00               0
GRID*               2107               01.0023931225E+016.0000000000E+00+
*       3.5420423520E+00               0
GRID*               2108               01.0922309535E+016.0000000000E+00+
*       3.1684714652E+00               0
GRID*               2109               01.1843019082E+016.0000002606E+00+
*       2.8539272856E+00               0
GRID*               2110               01.2782184813E+016.0000006464E+00+
*       2.5997335096E+00               0
GRID*               2111               01.3735843394E+016.0000000000E+00+
*       2.4069620709E+00               0
GRID*               2112               08.3091735926E+005.0000004850E+00+
*       4.4597345650E+00               0
GRID*               2113               09.1516685289E+005.0000007933E+00+
*       3.9730648970E+00               0
GRID*               2114               01.0023925430E+014.9999993879E+00+
*       3.5420450716E+00               0
GRID*               2115               01.0922309535E+015.0000000000E+00+
*       3.1684714652E+00               0
GRID*               2116               01.1843021326E+015.0000004838E+00+
*       2.8539266255E+00               0
GRID*               2117               01.2782186241E+015.0000007903E+00+
*       2.5997331728E+00               0
GRID*               2118               01.3735837097E+014.9999993885E+00+
*       2.4069632168E+00               0
GRID*               2119               08.3091750984E+004.0000006524E+00+
*       4.4597336572E+00               0
GRID*               2120               09.1516612226E+004.0000000000E+00+
*       3.9730688257E+00               0
GRID*               2121               01.0023925044E+013.9999993449E+00+
*       3.5420452527E+00               0
GRID*               2122               01.0922309535E+014.0000000000E+00+
*       3.1684714652E+00               0
GRID*               2123               01.1843023012E+014.0000006518E+00+
*       2.8539261292E+00               0
GRID*               2124               01.2782178168E+014.0000000000E+00+
*       2.5997350766E+00               0
GRID*               2125               01.3735836678E+013.9999993470E+00+
*       2.4069632930E+00               0
GRID*               2126               08.3091747332E+003.0000006114E+00+
*       4.4597338773E+00               0
GRID*               2127               09.1516539164E+002.9999992073E+00+
*       3.9730727542E+00               0
GRID*               2128               01.0023926636E+012.9999995101E+00+
*       3.5420445056E+00               0
GRID*               2129               01.0922309535E+013.0000000000E+00+
*       3.1684714652E+00               0
GRID*               2130               01.1843022603E+013.0000006112E+00+
*       2.8539262496E+00               0
GRID*               2131               01.2782170095E+012.9999992097E+00+
*       2.5997369805E+00               0
GRID*               2132               01.3735838408E+012.9999995137E+00+
*       2.4069629782E+00               0
GRID*               2133               08.3091692518E+002.0000000000E+00+
*       4.4597371822E+00               0
GRID*               2134               09.1516552095E+001.9999993462E+00+
*       3.9730720590E+00               0
GRID*               2135               01.0023928753E+011.9999997314E+00+
*       3.5420435121E+00               0
GRID*               2136               01.0922309535E+012.0000000000E+00+
*       3.1684714652E+00               0
GRID*               2137               01.1843016463E+012.0000000000E+00+
*       2.8539280565E+00               0
GRID*               2138               01.2782171523E+011.9999993536E+00+
*       2.5997366436E+00               0
GRID*               2139               01.3735840708E+011.9999997357E+00+
*       2.4069625596E+00               0
GRID*               2140               08.3091667145E+009.9999971607E-01+
*       4.4597387119E+00               0
GRID*               2141               09.1516590966E+009.9999976701E-01+
*       3.9730699689E+00               0
GRID*               2142               01.0023930508E+019.9999991705E-01+
*       3.5420426886E+00               0
GRID*               2143               01.0922309535E+011.0000000000E+00+
*       3.1684714652E+00               0
GRID*               2144               01.1843013621E+019.9999971678E-01+
*       2.8539288929E+00               0
GRID*               2145               01.2782175819E+019.9999977635E-01+
*       2.5997356307E+00               0
GRID*               2146               01.3735842615E+019.9999992055E-01+
*       2.4069622127E+00               0
GRID*               2147               08.3091706745E+006.5000001603E+00+
*       4.4597363244E+00               0
GRID*               2148               08.7264657359E+005.9999997170E+00+
*       4.2095717703E+00               0
GRID*               2149               09.1516653208E+006.5000004478E+00+
*       3.9730666221E+00               0
GRID*               2150               08.7264682732E+007.0000000000E+00+
*       4.2095702405E+00               0
GRID*               2151               09.5843011676E+006.0000000793E+00+
*       3.7504808639E+00               0
GRID*               2152               01.0023934294E+016.5000003249E+00+
*       3.5420409116E+00               0
GRID*               2153               09.5843006492E+007.0000000245E+00+
*       3.7504811072E+00               0
GRID*               2154               01.0470095440E+016.0000004837E+00+
*       3.3479692318E+00               0
GRID*               2155               01.0922309535E+016.5000000000E+00+
*       3.1684714652E+00               0
GRID*               2156               01.0470092209E+017.0000001509E+00+
*       3.3479705480E+00               0
GRID*               2157               01.1380118137E+016.0000006110E+00+
*       3.0037308317E+00               0
GRID*               2158               01.1843018057E+016.5000001586E+00+
*       2.8539275875E+00               0
GRID*               2159               01.1380114971E+017.0000002903E+00+
*       3.0037319342E+00               0
GRID*               2160               01.2310532888E+015.9999997171E+00+
*       2.7192154777E+00               0
GRID*               2161               01.2782182696E+016.5000004375E+00+
*       2.5997340087E+00               0
GRID*               2162               01.2310535730E+017.0000000000E+00+
*       2.7192146413E+00               0
GRID*               2163               01.3257448118E+016.0000000761E+00+
*       2.4956139724E+00               0
GRID*               2164               01.3735846730E+016.5000003245E+00+
*       2.4069614640E+00               0
GRID*               2165               01.3257447554E+017.0000000211E+00+
*       2.4956140751E+00               0
GRID*               2166               08.3091725942E+005.5000003740E+00+
*       4.4597351670E+00               0
GRID*               2167               08.7264656626E+004.9999997088E+00+
*       4.2095718145E+00               0
GRID*               2168               09.1516685259E+005.5000007940E+00+
*       3.9730648986E+00               0
GRID*               2169               09.5843018804E+005.0000001537E+00+
*       3.7504805293E+00               0
GRID*               2170               01.0023927251E+015.4999995807E+00+
*       3.5420442168E+00               0
GRID*               2171               01.0470098428E+015.0000007917E+00+
*       3.3479680148E+00               0
GRID*               2172               01.0922309535E+015.5000000000E+00+
*       3.1684714652E+00               0
GRID*               2173               01.1380112093E+015.0000000000E+00+
*       3.0037329364E+00               0
GRID*               2174               01.1843020207E+015.5000003725E+00+
*       2.8539269546E+00               0
GRID*               2175               01.2310532806E+014.9999997090E+00+
*       2.7192155019E+00               0
GRID*               2176               01.2782186238E+015.5000007881E+00+
*       2.5997331736E+00               0
GRID*               2177               01.3257448893E+015.0000001514E+00+
*       2.4956138314E+00               0
GRID*               2178               01.3735839076E+015.4999995808E+00+
*       2.4069628566E+00               0
GRID*               2179               08.3091744740E+004.5000005830E+00+
*       4.4597340336E+00               0
GRID*               2180               08.7264662054E+003.9999997693E+00+
*       4.2095714872E+00               0
GRID*               2181               09.1516664405E+004.5000005661E+00+
*       3.9730660200E+00               0
GRID*               2182               09.5843026354E+004.0000002324E+00+
*       3.7504801750E+00               0
GRID*               2183               01.0023924855E+014.4999993262E+00+
*       3.5420453415E+00               0
GRID*               2184               01.0470098428E+014.0000007920E+00+
*       3.3479680147E+00               0
GRID*               2185               01.0922309535E+014.5000000000E+00+
*       3.1684714652E+00               0
GRID*               2186               01.1380104259E+013.9999992083E+00+
*       3.0037356640E+00               0
GRID*               2187               01.1843022313E+014.5000005821E+00+
*       2.8539263350E+00               0
GRID*               2188               01.2310533414E+013.9999997697E+00+
*       2.7192153229E+00               0
GRID*               2189               01.2782183934E+014.5000005652E+00+
*       2.5997337170E+00               0
GRID*               2190               01.3257449714E+014.0000002310E+00+
*       2.4956136821E+00               0
GRID*               2191               01.3735836472E+014.4999993275E+00+
*       2.4069633305E+00               0
GRID*               2192               08.3091752773E+003.5000006722E+00+
*       4.4597335493E+00               0
GRID*               2193               08.7264669196E+002.9999998490E+00+
*       4.2095710566E+00               0
GRID*               2194               09.1516560047E+003.4999994341E+00+
*       3.9730716314E+00               0
GRID*               2195               09.5843032096E+003.0000002920E+00+
*       3.7504799055E+00               0
GRID*               2196               01.0023925704E+013.4999994132E+00+
*       3.5420449429E+00               0
GRID*               2197               01.0470090746E+013.0000000000E+00+
*       3.3479711440E+00               0
GRID*               2198               01.0922309535E+013.5000000000E+00+
*       3.1684714652E+00               0
GRID*               2199               01.1380104259E+012.9999992094E+00+
*       3.0037356639E+00               0
GRID*               2200               01.1843023213E+013.5000006718E+00+
*       2.8539260702E+00               0
GRID*               2201               01.2310534214E+012.9999998496E+00+
*       2.7192150875E+00               0
GRID*               2202               01.2782172402E+013.4999994347E+00+
*       2.5997364363E+00               0
GRID*               2203               01.3257450337E+013.0000002913E+00+
*       2.4956135687E+00               0
GRID*               2204               01.3735837395E+013.4999994160E+00+
*       2.4069631625E+00               0
GRID*               2205               08.3091730103E+002.5000004191E+00+
*       4.4597349161E+00               0
GRID*               2206               08.7264675942E+001.9999999243E+00+
*       4.2095706499E+00               0
GRID*               2207               09.1516539196E+002.4999992070E+00+
*       3.9730727525E+00               0
GRID*               2208               09.5843031327E+002.0000002832E+00+
*       3.7504799416E+00               0
GRID*               2209               01.0023927691E+012.4999996203E+00+
*       3.5420440103E+00               0
GRID*               2210               01.0470084818E+011.9999993882E+00+
*       3.3479735588E+00               0
GRID*               2211               01.0922309535E+012.5000000000E+00+
*       3.1684714652E+00               0
GRID*               2212               01.1380107306E+011.9999995182E+00+
*       3.0037346032E+00               0
GRID*               2213               01.1843020673E+012.5000004191E+00+
*       2.8539268175E+00               0
GRID*               2214               01.2310534970E+011.9999999251E+00+
*       2.7192148652E+00               0
GRID*               2215               01.2782170098E+012.4999992119E+00+
*       2.5997369797E+00               0
GRID*               2216               01.3257450253E+012.0000002830E+00+
*       2.4956135840E+00               0
GRID*               2217               01.3735839555E+012.4999996244E+00+
*       2.4069627695E+00               0
GRID*               2218               08.3091663486E+001.4999996759E+00+
*       4.4597389326E+00               0
GRID*               2219               08.7264680851E+009.9999997920E-01+
*       4.2095703539E+00               0
GRID*               2220               09.1516571247E+001.4999995534E+00+
*       3.9730710291E+00               0
GRID*               2221               09.5843004508E+001.0000000000E+00+
*       3.7504812003E+00               0
GRID*               2222               01.0023929721E+011.4999998333E+00+
*       3.5420430579E+00               0
GRID*               2223               01.0470087923E+019.9999970810E-01+
*       3.3479722939E+00               0
GRID*               2224               01.0922309535E+011.5000000000E+00+
*       3.1684714652E+00               0
GRID*               2225               01.1380110601E+019.9999985099E-01+
*       3.0037334559E+00               0
GRID*               2226               01.1843013211E+011.4999996761E+00+
*       2.8539290135E+00               0
GRID*               2227               01.2310535519E+019.9999997992E-01+
*       2.7192147033E+00               0
GRID*               2228               01.2782173640E+011.4999995625E+00+
*       2.5997361445E+00               0
GRID*               2229               01.3257447338E+011.0000000000E+00+
*       2.4956141144E+00               0
GRID*               2230               01.3735841760E+011.4999998375E+00+
*       2.4069623683E+00               0
GRID*               2231               07.9002056684E+007.0000002921E+00+
*       4.7233045790E+00               0
GRID*               2232               08.3091694326E+007.5000000214E+00+
*       4.4597370732E+00               0
GRID*               2233               07.9002084435E+006.0000006118E+00+
*       4.7233026975E+00               0
GRID*               2234               07.9002031454E+005.0000000000E+00+
*       4.7233062894E+00               0
GRID*               2235               07.9001962795E+003.9999992079E+00+
*       4.7233109442E+00               0
GRID*               2236               07.9001962797E+002.9999992079E+00+
*       4.7233109441E+00               0
GRID*               2237               07.9001989499E+001.9999995157E+00+
*       4.7233091338E+00               0
GRID*               2238               07.9002018378E+009.9999984860E-01+
*       4.7233071759E+00               0
GRID*               2239               08.3091683144E+004.9999989436E-01+
*       4.4597377473E+00               0
GRID*               2240               09.1516606175E+004.9999993250E-01+
*       3.9730691510E+00               0
GRID*               2241               01.0023931034E+014.9999997486E-01+
*       3.5420424417E+00               0
GRID*               2242               01.0922309535E+015.0000000000E-01+
*       3.1684714652E+00               0
GRID*               2243               01.1843015413E+014.9999989518E-01+
*       2.8539283655E+00               0
GRID*               2244               01.2782177499E+014.9999993932E-01+
*       2.5997352343E+00               0
GRID*               2245               01.3735843187E+014.9999997703E-01+
*       2.4069621087E+00               0
GRID*               2246               01.4216859891E+019.9999970290E-01+
*       2.3338722782E+00               0
GRID*               2247               01.4216856566E+011.9999993858E+00+
*       2.3338727080E+00               0
GRID*               2248               01.4216862915E+013.0000000000E+00+
*       2.3338718875E+00               0
GRID*               2249               01.4216871142E+014.0000007933E+00+
*       2.3338708241E+00               0
GRID*               2250               01.4216871141E+015.0000007961E+00+
*       2.3338708241E+00               0
GRID*               2251               01.4216867942E+016.0000004908E+00+
*       2.3338712377E+00               0
GRID*               2252               01.4216864481E+017.0000001580E+00+
*       2.3338716850E+00               0
GRID*               2253               01.3735844471E+017.5000001069E+00+
*       2.4069618750E+00               0
GRID*               2254               01.2782178837E+017.5000000607E+00+
*       2.5997349190E+00               0
GRID*               2255               01.1843016666E+017.5000000204E+00+
*       2.8539279969E+00               0
GRID*               2256               01.0922309535E+017.5000000000E+00+
*       3.1684714652E+00               0
GRID*               2257               01.0023932216E+017.5000001083E+00+
*       3.5420418870E+00               0
GRID*               2258               09.1516618277E+007.5000000678E+00+
*       3.9730685003E+00               0
GRID*               2259               08.5285714013E+001.0000000000E+00+
*       0.0000000000E+00               0
GRID*               2260               09.5571428026E+001.0000000000E+00+
*       0.0000000000E+00               0
GRID*               2261               01.0585714204E+011.0000000000E+00+
*       0.0000000000E+00               0
GRID*               2262               01.1614285605E+011.0000000000E+00+
*       0.0000000000E+00               0
GRID*               2263               01.2642857007E+011.0000000000E+00+
*       0.0000000000E+00               0
GRID*               2264               01.3671428408E+011.0000000000E+00+
*       0.0000000000E+00               0
GRID*               2265               08.5285714013E+002.0000000000E+00+
*       0.0000000000E+00               0
GRID*               2266               09.5571428026E+002.0000000000E+00+
*       0.0000000000E+00               0
GRID*               2267               01.0585714204E+012.0000000000E+00+
*       0.0000000000E+00               0
GRID*               2268               01.1614285605E+012.0000000000E+00+
*       0.0000000000E+00               0
GRID*               2269               01.2642857007E+012.0000000000E+00+
*       0.0000000000E+00               0
GRID*               2270               01.3671428408E+012.0000000000E+00+
*       0.0000000000E+00               0
GRID*               2271               08.5285714013E+003.0000000000E+00+
*       0.0000000000E+00               0
GRID*               2272               09.5571428026E+003.0000000000E+00+
*       0.0000000000E+00               0
GRID*               2273               01.0585714204E+013.0000000000E+00+
*       0.0000000000E+00               0
GRID*               2274               01.1614285605E+013.0000000000E+00+
*       0.0000000000E+00               0
GRID*               2275               01.2642857007E+013.0000000000E+00+
*       0.0000000000E+00               0
GRID*               2276               01.3671428408E+013.0000000000E+00+
*       0.0000000000E+00               0
GRID*               2277               08.5285714013E+004.0000000000E+00+
*       0.0000000000E+00               0
GRID*               2278               09.5571428026E+004.0000000000E+00+
*       0.0000000000E+00               0
GRID*               2279               01.0585714204E+014.0000000000E+00+
*       0.0000000000E+00               0
GRID*               2280               01.1614285605E+014.0000000000E+00+
*       0.0000000000E+00               0
GRID*               2281               01.2642857007E+014.0000000000E+00+
*       0.0000000000E+00               0
GRID*               2282               01.3671428408E+014.0000000000E+00+
*       0.0000000000E+00               0
GRID*               2283               08.5285714013E+005.0000000000E+00+
*       0.0000000000E+00               0
GRID*               2284               09.5571428026E+005.0000000000E+00+
*       0.0000000000E+00               0
GRID*               2285               01.0585714204E+015.0000000000E+00+
*       0.0000000000E+00               0
GRID*               2286               01.1614285605E+015.0000000000E+00+
*       0.0000000000E+00               0
GRID*               2287               01.2642857007E+015.0000000000E+00+
*       0.0000000000E+00               0
GRID*               2288               01.3671428408E+015.0000000000E+00+
*       0.0000000000E+00               0
GRID*               2289               08.5285714013E+006.0000000000E+00+
*       0.0000000000E+00               0
GRID*               2290               09.5571428026E+006.0000000000E+00+
*       0.0000000000E+00               0
GRID*               2291               01.0585714204E+016.0000000000E+00+
*       0.0000000000E+00               0
GRID*               2292               01.1614285605E+016.0000000000E+00+
*       0.0000000000E+00               0
GRID*               2293               01.2642857007E+016.0000000000E+00+
*       0.0000000000E+00               0
GRID*               2294               01.3671428408E+016.0000000000E+00+
*       0.0000000000E+00               0
GRID*               2295               08.5285714013E+007.0000000000E+00+
*       0.0000000000E+00               0
GRID*               2296               09.5571428026E+007.0000000000E+00+
*       0.0000000000E+00               0
GRID*               2297               01.0585714204E+017.0000000000E+00+
*       0.0000000000E+00               0
GRID*               2298               01.1614285605E+017.0000000000E+00+
*       0.0000000000E+00               0
GRID*               2299               01.2642857007E+017.0000000000E+00+
*       0.0000000000E+00               0
GRID*               2300               01.3671428408E+017.0000000000E+00+
*       0.0000000000E+00               0
GRID*               2301               08.5285714013E+001.5000000000E+00+
*       0.0000000000E+00               0
GRID*               2302               09.0428571020E+002.0000000000E+00+
*       0.0000000000E+00               0
GRID*               2303               09.5571428026E+001.5000000000E+00+
*       0.0000000000E+00               0
GRID*               2304               09.0428571020E+001.0000000000E+00+
*       0.0000000000E+00               0
GRID*               2305               01.0071428503E+012.0000000000E+00+
*       0.0000000000E+00               0
GRID*               2306               01.0585714204E+011.5000000000E+00+
*       0.0000000000E+00               0
GRID*               2307               01.0071428503E+011.0000000000E+00+
*       0.0000000000E+00               0
GRID*               2308               01.1099999905E+012.0000000000E+00+
*       0.0000000000E+00               0
GRID*               2309               01.1614285605E+011.5000000000E+00+
*       0.0000000000E+00               0
GRID*               2310               01.1099999905E+011.0000000000E+00+
*       0.0000000000E+00               0
GRID*               2311               01.2128571306E+012.0000000000E+00+
*       0.0000000000E+00               0
GRID*               2312               01.2642857007E+011.5000000000E+00+
*       0.0000000000E+00               0
GRID*               2313               01.2128571306E+011.0000000000E+00+
*       0.0000000000E+00               0
GRID*               2314               01.3157142707E+012.0000000000E+00+
*       0.0000000000E+00               0
GRID*               2315               01.3671428408E+011.5000000000E+00+
*       0.0000000000E+00               0
GRID*               2316               01.3157142707E+011.0000000000E+00+
*       0.0000000000E+00               0
GRID*               2317               08.5285714013E+002.5000000000E+00+
*       0.0000000000E+00               0
GRID*               2318               09.0428571020E+003.0000000000E+00+
*       0.0000000000E+00               0
GRID*               2319               09.5571428026E+002.5000000000E+00+
*       0.0000000000E+00               0
GRID*               2320               01.0071428503E+013.0000000000E+00+
*       0.0000000000E+00               0
GRID*               2321               01.0585714204E+012.5000000000E+00+
*       0.0000000000E+00               0
GRID*               2322               01.1099999905E+013.0000000000E+00+
*       0.0000000000E+00               0
GRID*               2323               01.1614285605E+012.5000000000E+00+
*       0.0000000000E+00               0
GRID*               2324               01.2128571306E+013.0000000000E+00+
*       0.0000000000E+00               0
GRID*               2325               01.2642857007E+012.5000000000E+00+
*       0.0000000000E+00               0
GRID*               2326               01.3157142707E+013.0000000000E+00+
*       0.0000000000E+00               0
GRID*               2327               01.3671428408E+012.5000000000E+00+
*       0.0000000000E+00               0
GRID*               2328               08.5285714013E+003.5000000000E+00+
*       0.0000000000E+00               0
GRID*               2329               09.0428571020E+004.0000000000E+00+
*       0.0000000000E+00               0
GRID*               2330               09.5571428026E+003.5000000000E+00+
*       0.0000000000E+00               0
GRID*               2331               01.0071428503E+014.0000000000E+00+
*       0.0000000000E+00               0
GRID*               2332               01.0585714204E+013.5000000000E+00+
*       0.0000000000E+00               0
GRID*               2333               01.1099999905E+014.0000000000E+00+
*       0.0000000000E+00               0
GRID*               2334               01.1614285605E+013.5000000000E+00+
*       0.0000000000E+00               0
GRID*               2335               01.2128571306E+014.0000000000E+00+
*       0.0000000000E+00               0
GRID*               2336               01.2642857007E+013.5000000000E+00+
*       0.0000000000E+00               0
GRID*               2337               01.3157142707E+014.0000000000E+00+
*       0.0000000000E+00               0
GRID*               2338               01.3671428408E+013.5000000000E+00+
*       0.0000000000E+00               0
GRID*               2339               08.5285714013E+004.5000000000E+00+
*       0.0000000000E+00               0
GRID*               2340               09.0428571020E+005.0000000000E+00+
*       0.0000000000E+00               0
GRID*               2341               09.5571428026E+004.5000000000E+00+
*       0.0000000000E+00               0
GRID*               2342               01.0071428503E+015.0000000000E+00+
*       0.0000000000E+00               0
GRID*               2343               01.0585714204E+014.5000000000E+00+
*       0.0000000000E+00               0
GRID*               2344               01.1099999905E+015.0000000000E+00+
*       0.0000000000E+00               0
GRID*               2345               01.1614285605E+014.5000000000E+00+
*       0.0000000000E+00               0
GRID*               2346               01.2128571306E+015.0000000000E+00+
*       0.0000000000E+00               0
GRID*               2347               01.2642857007E+014.5000000000E+00+
*       0.0000000000E+00               0
GRID*               2348               01.3157142707E+015.0000000000E+00+
*       0.0000000000E+00               0
GRID*               2349               01.3671428408E+014.5000000000E+00+
*       0.0000000000E+00               0
GRID*               2350               08.5285714013E+005.5000000000E+00+
*       0.0000000000E+00               0
GRID*               2351               09.0428571020E+006.0000000000E+00+
*       0.0000000000E+00               0
GRID*               2352               09.5571428026E+005.5000000000E+00+
*       0.0000000000E+00               0
GRID*               2353               01.0071428503E+016.0000000000E+00+
*       0.0000000000E+00               0
GRID*               2354               01.0585714204E+015.5000000000E+00+
*       0.0000000000E+00               0
GRID*               2355               01.1099999905E+016.0000000000E+00+
*       0.0000000000E+00               0
GRID*               2356               01.1614285605E+015.5000000000E+00+
*       0.0000000000E+00               0
GRID*               2357               01.2128571306E+016.0000000000E+00+
*       0.0000000000E+00               0
GRID*               2358               01.2642857007E+015.5000000000E+00+
*       0.0000000000E+00               0
GRID*               2359               01.3157142707E+016.0000000000E+00+
*       0.0000000000E+00               0
GRID*               2360               01.3671428408E+015.5000000000E+00+
*       0.0000000000E+00               0
GRID*               2361               08.5285714013E+006.5000000000E+00+
*       0.0000000000E+00               0
GRID*               2362               09.0428571020E+007.0000000000E+00+
*       0.0000000000E+00               0
GRID*               2363               09.5571428026E+006.5000000000E+00+
*       0.0000000000E+00               0
GRID*               2364               01.0071428503E+017.0000000000E+00+
*       0.0000000000E+00               0
GRID*               2365               01.0585714204E+016.5000000000E+00+
*       0.0000000000E+00               0
GRID*               2366               01.1099999905E+017.0000000000E+00+
*       0.0000000000E+00               0
GRID*               2367               01.1614285605E+016.5000000000E+00+
*       0.0000000000E+00               0
GRID*               2368               01.2128571306E+017.0000000000E+00+
*       0.0000000000E+00               0
GRID*               2369               01.2642857007E+016.5000000000E+00+
*       0.0000000000E+00               0
GRID*               2370               01.3157142707E+017.0000000000E+00+
*       0.0000000000E+00               0
GRID*               2371               01.3671428408E+016.5000000000E+00+
*       0.0000000000E+00               0
GRID*               2372               08.0142857007E+001.0000000000E+00+
*       0.0000000000E+00               0
GRID*               2373               08.5285714013E+005.0000000000E-01+
*       0.0000000000E+00               0
GRID*               2374               08.0142857007E+002.0000000000E+00+
*       0.0000000000E+00               0
GRID*               2375               08.0142857007E+003.0000000000E+00+
*       0.0000000000E+00               0
GRID*               2376               08.0142857007E+004.0000000000E+00+
*       0.0000000000E+00               0
GRID*               2377               08.0142857007E+005.0000000000E+00+
*       0.0000000000E+00               0
GRID*               2378               08.0142857007E+006.0000000000E+00+
*       0.0000000000E+00               0
GRID*               2379               08.0142857007E+007.0000000000E+00+
*       0.0000000000E+00               0
GRID*               2380               08.5285714013E+007.5000000000E+00+
*       0.0000000000E+00               0
GRID*               2381               09.5571428026E+007.5000000000E+00+
*       0.0000000000E+00               0
GRID*               2382               01.0585714204E+017.5000000000E+00+
*       0.0000000000E+00               0
GRID*               2383               01.1614285605E+017.5000000000E+00+
*       0.0000000000E+00               0
GRID*               2384               01.2642857007E+017.5000000000E+00+
*       0.0000000000E+00               0
GRID*               2385               01.3671428408E+017.5000000000E+00+
*       0.0000000000E+00               0
GRID*               2386               01.4185714109E+017.0000000000E+00+
*       0.0000000000E+00               0
GRID*               2387               01.4185714109E+016.0000000000E+00+
*       0.0000000000E+00               0
GRID*               2388               01.4185714109E+015.0000000000E+00+
*       0.0000000000E+00               0
GRID*               2389               01.4185714109E+014.0000000000E+00+
*       0.0000000000E+00               0
GRID*               2390               01.4185714109E+013.0000000000E+00+
*       0.0000000000E+00               0
GRID*               2391               01.4185714109E+012.0000000000E+00+
*       0.0000000000E+00               0
GRID*               2392               01.4185714109E+011.0000000000E+00+
*       0.0000000000E+00               0
GRID*               2393               01.3671428408E+015.0000000000E-01+
*       0.0000000000E+00               0
GRID*               2394               01.2642857007E+015.0000000000E-01+
*       0.0000000000E+00               0
GRID*               2395               01.1614285605E+015.0000000000E-01+
*       0.0000000000E+00               0
GRID*               2396               01.0585714204E+015.0000000000E-01+
*       0.0000000000E+00               0
GRID*               2397               09.5571428026E+005.0000000000E-01+
*       0.0000000000E+00               0
GRID*               1051               07.5000000000E+007.0000000000E+00+
*       4.0000000000E+00               0
GRID*               1052               07.5000000000E+007.0000000000E+00+
*       3.0000000000E+00               0
GRID*               1053               07.5000000000E+007.0000000000E+00+
*       2.0000000000E+00               0
GRID*               1054               07.5000000000E+007.0000000000E+00+
*       1.0000000000E+00               0
GRID*               1055               07.5000000000E+006.0000000000E+00+
*       4.0000000000E+00               0
GRID*               1056               07.5000000000E+006.0000000000E+00+
*       3.0000000000E+00               0
GRID*               1057               07.5000000000E+006.0000000000E+00+
*       2.0000000000E+00               0
GRID*               1058               07.5000000000E+006.0000000000E+00+
*       1.0000000000E+00               0
GRID*               1059               07.5000000000E+005.0000000000E+00+
*       4.0000000000E+00               0
GRID*               1060               07.5000000000E+005.0000000000E+00+
*       3.0000000000E+00               0
GRID*               1061               07.5000000000E+005.0000000000E+00+
*       2.0000000000E+00               0
GRID*               1062               07.5000000000E+005.0000000000E+00+
*       1.0000000000E+00               0
GRID*               1063               07.5000000000E+004.0000000000E+00+
*       4.0000000000E+00               0
GRID*               1064               07.5000000000E+004.0000000000E+00+
*       3.0000000000E+00               0
GRID*               1065               07.5000000000E+004.0000000000E+00+
*       2.0000000000E+00               0
GRID*               1066               07.5000000000E+004.0000000000E+00+
*       1.0000000000E+00               0
GRID*               1067               07.5000000000E+003.0000000000E+00+
*       4.0000000000E+00               0
GRID*               1068               07.5000000000E+003.0000000000E+00+
*       3.0000000000E+00               0
GRID*               1069               07.5000000000E+003.0000000000E+00+
*       2.0000000000E+00               0
GRID*               1070               07.5000000000E+003.0000000000E+00+
*       1.0000000000E+00               0
GRID*               1071               07.5000000000E+002.0000000000E+00+
*       4.0000000000E+00               0
GRID*               1072               07.5000000000E+002.0000000000E+00+
*       3.0000000000E+00               0
GRID*               1073               07.5000000000E+002.0000000000E+00+
*       2.0000000000E+00               0
GRID*               1074               07.5000000000E+002.0000000000E+00+
*       1.0000000000E+00               0
GRID*               1075               07.5000000000E+001.0000000000E+00+
*       4.0000000000E+00               0
GRID*               1076               07.5000000000E+001.0000000000E+00+
*       3.0000000000E+00               0
GRID*               1077               07.5000000000E+001.0000000000E+00+
*       2.0000000000E+00               0
GRID*               1078               07.5000000000E+001.0000000000E+00+
*       1.0000000000E+00               0
GRID*               1079               07.5000000000E+006.5000000000E+00+
*       4.0000000000E+00               0
GRID*               1080               07.5000000000E+006.0000000000E+00+
*       3.5000000000E+00               0
GRID*               1081               07.5000000000E+006.5000000000E+00+
*       3.0000000000E+00               0
GRID*               1082               07.5000000000E+007.0000000000E+00+
*       3.5000000000E+00               0
GRID*               1083               07.5000000000E+006.0000000000E+00+
*       2.5000000000E+00               0
GRID*               1084               07.5000000000E+006.5000000000E+00+
*       2.0000000000E+00               0
GRID*               1085               07.5000000000E+007.0000000000E+00+
*       2.5000000000E+00               0
GRID*               1086               07.5000000000E+006.0000000000E+00+
*       1.5000000000E+00               0
GRID*               1087               07.5000000000E+006.5000000000E+00+
*       1.0000000000E+00               0
GRID*               1088               07.5000000000E+007.0000000000E+00+
*       1.5000000000E+00               0
GRID*               1089               07.5000000000E+005.5000000000E+00+
*       4.0000000000E+00               0
GRID*               1090               07.5000000000E+005.0000000000E+00+
*       3.5000000000E+00               0
GRID*               1091               07.5000000000E+005.5000000000E+00+
*       3.0000000000E+00               0
GRID*               1092               07.5000000000E+005.0000000000E+00+
*       2.5000000000E+00               0
GRID*               1093               07.5000000000E+005.5000000000E+00+
*       2.0000000000E+00               0
GRID*               1094               07.5000000000E+005.0000000000E+00+
*       1.5000000000E+00               0
GRID*               1095               07.5000000000E+005.5000000000E+00+
*       1.0000000000E+00               0
GRID*               1096               07.5000000000E+004.5000000000E+00+
*       4.0000000000E+00               0
GRID*               1097               07.5000000000E+004.0000000000E+00+
*       3.5000000000E+00               0
GRID*               1098               07.5000000000E+004.5000000000E+00+
*       3.0000000000E+00               0
GRID*               1099               07.5000000000E+004.0000000000E+00+
*       2.5000000000E+00               0
GRID*               1100               07.5000000000E+004.5000000000E+00+
*       2.0000000000E+00               0
GRID*               1101               07.5000000000E+004.0000000000E+00+
*       1.5000000000E+00               0
GRID*               1102               07.5000000000E+004.5000000000E+00+
*       1.0000000000E+00               0
GRID*               1103               07.5000000000E+003.5000000000E+00+
*       4.0000000000E+00               0
GRID*               1104               07.5000000000E+003.0000000000E+00+
*       3.5000000000E+00               0
GRID*               1105               07.5000000000E+003.5000000000E+00+
*       3.0000000000E+00               0
GRID*               1106               07.5000000000E+003.0000000000E+00+
*       2.5000000000E+00               0
GRID*               1107               07.5000000000E+003.5000000000E+00+
*       2.0000000000E+00               0
GRID*               1108               07.5000000000E+003.0000000000E+00+
*       1.5000000000E+00               0
GRID*               1109               07.5000000000E+003.5000000000E+00+
*       1.0000000000E+00               0
GRID*               1110               07.5000000000E+002.5000000000E+00+
*       4.0000000000E+00               0
GRID*               1111               07.5000000000E+002.0000000000E+00+
*       3.5000000000E+00               0
GRID*               1112               07.5000000000E+002.5000000000E+00+
*       3.0000000000E+00               0
GRID*               1113               07.5000000000E+002.0000000000E+00+
*       2.5000000000E+00               0
GRID*               1114               07.5000000000E+002.5000000000E+00+
*       2.0000000000E+00               0
GRID*               1115               07.5000000000E+002.0000000000E+00+
*       1.5000000000E+00               0
GRID*               1116               07.5000000000E+002.5000000000E+00+
*       1.0000000000E+00               0
GRID*               1117               07.5000000000E+001.5000000000E+00+
*       4.0000000000E+00               0
GRID*               1118               07.5000000000E+001.0000000000E+00+
*       3.5000000000E+00               0
GRID*               1119               07.5000000000E+001.5000000000E+00+
*       3.0000000000E+00               0
GRID*               1120               07.5000000000E+001.0000000000E+00+
*       2.5000000000E+00               0
GRID*               1121               07.5000000000E+001.5000000000E+00+
*       2.0000000000E+00               0
GRID*               1122               07.5000000000E+001.0000000000E+00+
*       1.5000000000E+00               0
GRID*               1123               07.5000000000E+001.5000000000E+00+
*       1.0000000000E+00               0
GRID*               1124               07.5000000000E+007.0000000000E+00+
*       4.5000000000E+00               0
GRID*               1125               07.5000000000E+007.5000000000E+00+
*       4.0000000000E+00               0
GRID*               1126               07.5000000000E+006.0000000000E+00+
*       4.5000000000E+00               0
GRID*               1127               07.5000000000E+005.0000000000E+00+
*       4.5000000000E+00               0
GRID*               1128               07.5000000000E+004.0000000000E+00+
*       4.5000000000E+00               0
GRID*               1129               07.5000000000E+003.0000000000E+00+
*       4.5000000000E+00               0
GRID*               1130               07.5000000000E+002.0000000000E+00+
*       4.5000000000E+00               0
GRID*               1131               07.5000000000E+001.0000000000E+00+
*       4.5000000000E+00               0
GRID*               1132               07.5000000000E+005.0000000000E-01+
*       4.0000000000E+00               0
GRID*               1133               07.5000000000E+005.0000000000E-01+
*       3.0000000000E+00               0
GRID*               1134               07.5000000000E+005.0000000000E-01+
*       2.0000000000E+00               0
GRID*               1135               07.5000000000E+005.0000000000E-01+
*       1.0000000000E+00               0
GRID*               1136               07.5000000000E+001.0000000000E+00+
*       5.0000000000E-01               0
GRID*               1137               07.5000000000E+002.0000000000E+00+
*       5.0000000000E-01               0
GRID*               1138               07.5000000000E+003.0000000000E+00+
*       5.0000000000E-01               0
GRID*               1139               07.5000000000E+004.0000000000E+00+
*       5.0000000000E-01               0
GRID*               1140               07.5000000000E+005.0000000000E+00+
*       5.0000000000E-01               0
GRID*               1141               07.5000000000E+006.0000000000E+00+
*       5.0000000000E-01               0
GRID*               1142               07.5000000000E+007.0000000000E+00+
*       5.0000000000E-01               0
GRID*               1143               07.5000000000E+007.5000000000E+00+
*       1.0000000000E+00               0
GRID*               1144               07.5000000000E+007.5000000000E+00+
*       2.0000000000E+00               0
GRID*               1145               07.5000000000E+007.5000000000E+00+
*       3.0000000000E+00               0
GRID*               1972               08.2605664630E+000.0000000000E+00+
*       3.6115077990E+00               0
GRID*               1973               08.9613977151E+000.0000000000E+00+
*       3.1256632089E+00               0
GRID*               1974               09.8445842449E+000.0000000000E+00+
*       2.7255423430E+00               0
GRID*               1975               01.0759355045E+010.0000000000E+00+
*       2.4216066612E+00               0
GRID*               1976               01.1636492176E+010.0000000000E+00+
*       2.1719887243E+00               0
GRID*               1977               01.2450498732E+015.7724569028E-15+
*       1.9113529605E+00               0
GRID*               1978               01.3390042463E+013.0001094944E-14+
*       1.2574952743E+00               0
GRID*               1979               01.2380000183E+012.8561901485E-14+
*       8.3261323987E-01               0
GRID*               1980               01.1509001284E+012.0310671448E-14+
*       7.8257581092E-01               0
GRID*               1981               01.0578337632E+019.2256613943E-15+
*       8.3861177408E-01               0
GRID*               1982               09.5857478555E+000.0000000000E+00+
*       9.2827784772E-01               0
GRID*               1983               08.5427806729E+000.0000000000E+00+
*       1.0225473117E+00               0
GRID*               1984               08.5683247521E+000.0000000000E+00+
*       2.1544507969E+00               0
GRID*               1985               08.1486543036E+000.0000000000E+00+
*       2.8833281206E+00               0
GRID*               1986               09.6602967302E+000.0000000000E+00+
*       1.8535188493E+00               0
GRID*               1987               01.0622353443E+010.0000000000E+00+
*       1.6486943956E+00               0
GRID*               1988               01.1466409510E+014.5809678179E-15+
*       1.4999470032E+00               0
GRID*               1989               01.2075410363E+011.0837850651E-14+
*       1.4179690554E+00               0
GRID*               1990               01.4045021136E+013.3083379069E-14+
*       1.1978526663E+00               0
GRID*               1991               01.3530735435E+014.6209073517E-14+
*       6.2874763714E-01               0
GRID*               1992               01.3562942928E+011.0962196632E-14+
*       1.8322286760E+00               0
GRID*               1993               01.2511428595E+014.1408826699E-14+
*       4.1630661994E-01               0
GRID*               1994               01.1944500733E+012.4456022790E-14+
*       8.0759452540E-01               0
GRID*               1995               01.1561643445E+013.1078744838E-14+
*       3.9128790546E-01               0
GRID*               1996               01.0582025918E+011.8545101947E-14+
*       4.1930588704E-01               0
GRID*               1997               01.1043669458E+011.4548469205E-14+
*       8.1059379250E-01               0
GRID*               1998               01.2227705273E+011.9044196107E-14+
*       1.1252911476E+00               0
GRID*               1999               01.1770909937E+017.4475027134E-15+
*       1.4589580293E+00               0
GRID*               2000               01.1487705397E+011.1282585177E-14+
*       1.1412614071E+00               0
GRID*               2001               01.0600345537E+012.6648407919E-15+
*       1.2436530848E+00               0
GRID*               2002               01.1044381476E+011.4776039898E-15+
*       1.5743206994E+00               0
GRID*               2003               01.0840832290E+010.0000000000E+00+
*       2.7950390632E+00               0
GRID*               2004               01.1197923611E+010.0000000000E+00+
*       2.2967976928E+00               0
GRID*               2005               01.1739754318E+010.0000000000E+00+
*       2.5129583881E+00               0
GRID*               2006               01.2616338448E+013.0263233418E-15+
*       2.2555440095E+00               0
GRID*               2007               01.2043495454E+011.7393848004E-15+
*       2.0416708424E+00               0
GRID*               2008               01.0690854244E+010.0000000000E+00+
*       2.0351505284E+00               0
GRID*               2009               01.1551450843E+011.3667934027E-15+
*       1.8359678638E+00               0
GRID*               2010               01.2262954548E+017.9571451102E-15+
*       1.6646610079E+00               0
GRID*               2011               08.5356760371E+000.0000000000E+00+
*       5.1127365587E-01               0
GRID*               2012               08.0213903365E+000.0000000000E+00+
*       1.0112736559E+00               0
GRID*               2013               08.5555527125E+000.0000000000E+00+
*       1.5884990543E+00               0
GRID*               2014               08.0341623760E+000.0000000000E+00+
*       2.0772253984E+00               0
GRID*               2015               07.8243271518E+000.0000000000E+00+
*       2.9416640603E+00               0
GRID*               2016               08.2046103833E+000.0000000000E+00+
*       3.2474179598E+00               0
GRID*               2017               07.8802832315E+000.0000000000E+00+
*       3.8057538995E+00               0
GRID*               2018               08.2848678592E+000.0000000000E+00+
*       4.0356224901E+00               0
GRID*               2019               08.3584895278E+000.0000000000E+00+
*       2.5188894587E+00               0
GRID*               2020               01.0082042744E+014.1773945621E-15+
*       8.8344481090E-01               0
GRID*               2021               09.5714453291E+006.8167835487E-15+
*       4.6413892386E-01               0
GRID*               2022               09.0642642642E+000.0000000000E+00+
*       9.7541257973E-01               0
GRID*               2023               01.0141325086E+010.0000000000E+00+
*       1.7511066224E+00               0
GRID*               2024               09.6230222928E+000.0000000000E+00+
*       1.3908983485E+00               0
GRID*               2025               09.9342577316E+000.0000000000E+00+
*       3.1337923428E+00               0
GRID*               2026               01.0301969645E+010.0000000000E+00+
*       2.5735745021E+00               0
GRID*               2027               09.7524404875E+000.0000000000E+00+
*       2.2895305961E+00               0
GRID*               2028               09.0565294680E+000.0000000000E+00+
*       3.5493660197E+00               0
GRID*               2029               09.4029909800E+000.0000000000E+00+
*       2.9256027759E+00               0
GRID*               2030               01.2920270598E+011.6466948735E-14+
*       1.5844241174E+00               0
GRID*               2031               01.2885021323E+012.8472868050E-14+
*       1.0450542571E+00               0
GRID*               2032               09.1143107411E+000.0000000000E+00+
*       2.0039848231E+00               0
GRID*               2033               08.7648612336E+000.0000000000E+00+
*       2.6400570029E+00               0
GRID*               2034               08.6109820890E+000.0000000000E+00+
*       3.3685855040E+00               0
GRID*               2035               01.0578337632E+018.0000000000E+00+
*       8.3861177408E-01               0
GRID*               2036               01.0622353443E+018.0000000000E+00+
*       1.6486943956E+00               0
GRID*               2037               01.0759355045E+018.0000000000E+00+
*       2.4216066612E+00               0
GRID*               2038               01.2380000183E+018.0000000000E+00+
*       8.3261323987E-01               0
GRID*               2039               01.2075410363E+018.0000000000E+00+
*       1.4179690554E+00               0
GRID*               2040               01.2450498732E+018.0000000000E+00+
*       1.9113529605E+00               0
GRID*               2041               01.3390042463E+018.0000000000E+00+
*       1.2574952743E+00               0
GRID*               2042               01.1509001284E+018.0000000000E+00+
*       7.8257581092E-01               0
GRID*               2043               01.1466409510E+018.0000000000E+00+
*       1.4999470032E+00               0
GRID*               2044               01.1636492176E+018.0000000000E+00+
*       2.1719887243E+00               0
GRID*               2045               08.9613977151E+008.0000000000E+00+
*       3.1256632089E+00               0
GRID*               2046               08.5427806729E+008.0000000000E+00+
*       1.0225473117E+00               0
GRID*               2047               08.5683247521E+008.0000000000E+00+
*       2.1544507969E+00               0
GRID*               2048               08.1486543036E+008.0000000000E+00+
*       2.8833281206E+00               0
GRID*               2049               08.2605664630E+008.0000000000E+00+
*       3.6115077990E+00               0
GRID*               2050               09.5857478555E+008.0000000000E+00+
*       9.2827784772E-01               0
GRID*               2051               09.6602967302E+008.0000000000E+00+
*       1.8535188493E+00               0
GRID*               2052               09.8445842449E+008.0000000000E+00+
*       2.7255423430E+00               0
GRID*               2053               01.4045021136E+018.0000000000E+00+
*       1.1978526663E+00               0
GRID*               2054               01.3530735435E+018.0000000000E+00+
*       6.2874763714E-01               0
GRID*               2055               01.3562942928E+018.0000000000E+00+
*       1.8322286760E+00               0
GRID*               2056               01.1944500733E+018.0000000000E+00+
*       8.0759452540E-01               0
GRID*               2057               01.2511428595E+018.0000000000E+00+
*       4.1630661994E-01               0
GRID*               2058               01.1561643445E+018.0000000000E+00+
*       3.9128790546E-01               0
GRID*               2059               01.0582025918E+018.0000000000E+00+
*       4.1930588704E-01               0
GRID*               2060               01.1043669458E+018.0000000000E+00+
*       8.1059379250E-01               0
GRID*               2061               01.1770909937E+018.0000000000E+00+
*       1.4589580293E+00               0
GRID*               2062               01.2227705273E+018.0000000000E+00+
*       1.1252911476E+00               0
GRID*               2063               01.1487705397E+018.0000000000E+00+
*       1.1412614071E+00               0
GRID*               2064               01.0600345537E+018.0000000000E+00+
*       1.2436530848E+00               0
GRID*               2065               01.1044381476E+018.0000000000E+00+
*       1.5743206994E+00               0
GRID*               2066               01.1197923611E+018.0000000000E+00+
*       2.2967976928E+00               0
GRID*               2067               01.0840832290E+018.0000000000E+00+
*       2.7950390632E+00               0
GRID*               2068               01.1739754318E+018.0000000000E+00+
*       2.5129583881E+00               0
GRID*               2069               01.2616338448E+018.0000000000E+00+
*       2.2555440095E+00               0
GRID*               2070               01.2043495454E+018.0000000000E+00+
*       2.0416708424E+00               0
GRID*               2071               01.0690854244E+018.0000000000E+00+
*       2.0351505284E+00               0
GRID*               2072               01.1551450843E+018.0000000000E+00+
*       1.8359678638E+00               0
GRID*               2073               01.2262954548E+018.0000000000E+00+
*       1.6646610079E+00               0
GRID*               2074               08.5356760371E+008.0000000000E+00+
*       5.1127365587E-01               0
GRID*               2075               08.0213903365E+008.0000000000E+00+
*       1.0112736559E+00               0
GRID*               2076               08.5555527125E+008.0000000000E+00+
*       1.5884990543E+00               0
GRID*               2077               08.0341623760E+008.0000000000E+00+
*       2.0772253984E+00               0
GRID*               2078               08.2046103833E+008.0000000000E+00+
*       3.2474179598E+00               0
GRID*               2079               07.8243271518E+008.0000000000E+00+
*       2.9416640603E+00               0
GRID*               2080               07.8802832315E+008.0000000000E+00+
*       3.8057538995E+00               0
GRID*               2081               08.2848678592E+008.0000000000E+00+
*       4.0356224901E+00               0
GRID*               2082               08.3584895278E+008.0000000000E+00+
*       2.5188894587E+00               0
GRID*               2083               01.0082042744E+018.0000000000E+00+
*       8.8344481090E-01               0
GRID*               2084               09.5714453291E+008.0000000000E+00+
*       4.6413892386E-01               0
GRID*               2085               09.0642642642E+008.0000000000E+00+
*       9.7541257973E-01               0
GRID*               2086               01.0141325086E+018.0000000000E+00+
*       1.7511066224E+00               0
GRID*               2087               09.6230222928E+008.0000000000E+00+
*       1.3908983485E+00               0
GRID*               2088               09.9342577316E+008.0000000000E+00+
*       3.1337923428E+00               0
GRID*               2089               01.0301969645E+018.0000000000E+00+
*       2.5735745021E+00               0
GRID*               2090               09.7524404875E+008.0000000000E+00+
*       2.2895305961E+00               0
GRID*               2091               09.0565294680E+008.0000000000E+00+
*       3.5493660197E+00               0
GRID*               2092               09.4029909800E+008.0000000000E+00+
*       2.9256027759E+00               0
GRID*               2093               01.2920270598E+018.0000000000E+00+
*       1.5844241174E+00               0
GRID*               2094               01.2885021323E+018.0000000000E+00+
*       1.0450542571E+00               0
GRID*               2095               09.1143107411E+008.0000000000E+00+
*       2.0039848231E+00               0
GRID*               2096               08.7648612336E+008.0000000000E+00+
*       2.6400570029E+00               0
GRID*               2097               08.6109820890E+008.0000000000E+00+
*       3.3685855040E+00               0
GRID*               2398               01.4699999809E+011.0000000000E+00+
*       1.1382100582E+00               0
GRID*               2399               01.4699999809E+012.0000000000E+00+
*       1.1382100582E+00               0
GRID*               2400               01.4699999809E+013.0000000000E+00+
*       1.1382100582E+00               0
GRID*               2401               01.4699999809E+014.0000000000E+00+
*       1.1382100582E+00               0
GRID*               2402               01.4699999809E+015.0000000000E+00+
*       1.1382100582E+00               0
GRID*               2403               01.4699999809E+016.0000000000E+00+
*       1.1382100582E+00               0
GRID*               2404               01.4699999809E+017.0000000000E+00+
*       1.1382100582E+00               0
GRID*               2405               01.4699999809E+011.0000000000E+00+
*       5.6910502911E-01               0
GRID*               2406               01.4699999809E+015.0000000000E-01+
*       1.1382100582E+00               0
GRID*               2407               01.4699999809E+012.0000000000E+00+
*       5.6910502911E-01               0
GRID*               2408               01.4699999809E+011.5000000000E+00+
*       1.1382100582E+00               0
GRID*               2409               01.4699999809E+013.0000000000E+00+
*       5.6910502911E-01               0
GRID*               2410               01.4699999809E+012.5000000000E+00+
*       1.1382100582E+00               0
GRID*               2411               01.4699999809E+014.0000000000E+00+
*       5.6910502911E-01               0
GRID*               2412               01.4699999809E+013.5000000000E+00+
*       1.1382100582E+00               0
GRID*               2413               01.4699999809E+015.0000000000E+00+
*       5.6910502911E-01               0
GRID*               2414               01.4699999809E+014.5000000000E+00+
*       1.1382100582E+00               0
GRID*               2415               01.4699999809E+016.0000000000E+00+
*       5.6910502911E-01               0
GRID*               2416               01.4699999809E+015.5000000000E+00+
*       1.1382100582E+00               0
GRID*               2417               01.4699999809E+017.0000000000E+00+
*       5.6910502911E-01               0
GRID*               2418               01.4699999809E+016.5000000000E+00+
*       1.1382100582E+00               0
GRID*               2419               01.4699999809E+017.5000000000E+00+
*       1.1382100582E+00               0
GRID*               2420               01.4699999809E+017.0000000000E+00+
*       1.7073150873E+00               0
GRID*               2421               01.4699999809E+016.0000000000E+00+
*       1.7073150873E+00               0
GRID*               2422               01.4699999809E+015.0000000000E+00+
*       1.7073150873E+00               0
GRID*               2423               01.4699999809E+014.0000000000E+00+
*       1.7073150873E+00               0
GRID*               2424               01.4699999809E+013.0000000000E+00+
*       1.7073150873E+00               0
GRID*               2425               01.4699999809E+012.0000000000E+00+
*       1.7073150873E+00               0
GRID*               2426               01.4699999809E+011.0000000000E+00+
*       1.7073150873E+00               0
GRID*               1387               08.2605669864E+007.0000000537E+00+
*       3.6115076118E+00               0
GRID*               1388               08.9613982386E+007.0000000537E+00+
*       3.1256630216E+00               0
GRID*               1389               09.8445847684E+007.0000000537E+00+
*       2.7255421557E+00               0
GRID*               1390               01.0759355569E+017.0000000537E+00+
*       2.4216064740E+00               0
GRID*               1391               01.1636492699E+017.0000000537E+00+
*       2.1719885371E+00               0
GRID*               1392               01.2450499256E+017.0000000537E+00+
*       1.9113527732E+00               0
GRID*               1393               01.3390042986E+017.0000000537E+00+
*       1.2574950870E+00               0
GRID*               1394               01.2380000706E+017.0000000537E+00+
*       8.3261305263E-01               0
GRID*               1395               01.1509001807E+017.0000000537E+00+
*       7.8257562368E-01               0
GRID*               1396               01.0578338155E+017.0000000537E+00+
*       8.3861158684E-01               0
GRID*               1397               09.5857483790E+007.0000000537E+00+
*       9.2827766048E-01               0
GRID*               1398               08.5427811964E+007.0000000537E+00+
*       1.0225471245E+00               0
GRID*               1399               08.5683252755E+007.0000000537E+00+
*       2.1544506096E+00               0
GRID*               1400               08.1486548270E+007.0000000537E+00+
*       2.8833279333E+00               0
GRID*               1401               09.6602972536E+007.0000000537E+00+
*       1.8535186620E+00               0
GRID*               1402               01.0622353966E+017.0000000537E+00+
*       1.6486942083E+00               0
GRID*               1403               01.1466410033E+017.0000000537E+00+
*       1.4999468160E+00               0
GRID*               1404               01.2075410887E+017.0000000537E+00+
*       1.4179688682E+00               0
GRID*               1405               08.2605672639E+006.0000000829E+00+
*       3.6115074817E+00               0
GRID*               1406               08.9613985160E+006.0000000829E+00+
*       3.1256628916E+00               0
GRID*               1407               09.8445850458E+006.0000000829E+00+
*       2.7255420256E+00               0
GRID*               1408               01.0759355846E+016.0000000829E+00+
*       2.4216063439E+00               0
GRID*               1409               01.1636492977E+016.0000000829E+00+
*       2.1719884070E+00               0
GRID*               1410               01.2450499533E+016.0000000829E+00+
*       1.9113526431E+00               0
GRID*               1411               01.3390043264E+016.0000000829E+00+
*       1.2574949570E+00               0
GRID*               1412               01.2380000983E+016.0000000829E+00+
*       8.3261292255E-01               0
GRID*               1413               01.1509002085E+016.0000000829E+00+
*       7.8257549360E-01               0
GRID*               1414               01.0578338433E+016.0000000829E+00+
*       8.3861145675E-01               0
GRID*               1415               09.5857486564E+006.0000000829E+00+
*       9.2827753040E-01               0
GRID*               1416               08.5427814739E+006.0000000829E+00+
*       1.0225469944E+00               0
GRID*               1417               08.5683255530E+006.0000000829E+00+
*       2.1544504796E+00               0
GRID*               1418               08.1486551045E+006.0000000829E+00+
*       2.8833278033E+00               0
GRID*               1419               09.6602975311E+006.0000000829E+00+
*       1.8535185320E+00               0
GRID*               1420               01.0622354244E+016.0000000829E+00+
*       1.6486940782E+00               0
GRID*               1421               01.1466410311E+016.0000000829E+00+
*       1.4999466859E+00               0
GRID*               1422               01.2075411164E+016.0000000829E+00+
*       1.4179687381E+00               0
GRID*               1423               08.2605670310E+005.0000000604E+00+
*       3.6115075256E+00               0
GRID*               1424               08.9613982831E+005.0000000604E+00+
*       3.1256629355E+00               0
GRID*               1425               09.8445848129E+005.0000000604E+00+
*       2.7255420695E+00               0
GRID*               1426               01.0759355613E+015.0000000604E+00+
*       2.4216063878E+00               0
GRID*               1427               01.1636492744E+015.0000000604E+00+
*       2.1719884509E+00               0
GRID*               1428               01.2450499300E+015.0000000604E+00+
*       1.9113526870E+00               0
GRID*               1429               01.3390043031E+015.0000000604E+00+
*       1.2574950009E+00               0
GRID*               1430               01.2380000751E+015.0000000604E+00+
*       8.3261296645E-01               0
GRID*               1431               01.1509001852E+015.0000000604E+00+
*       7.8257553750E-01               0
GRID*               1432               01.0578338200E+015.0000000604E+00+
*       8.3861150066E-01               0
GRID*               1433               09.5857484235E+005.0000000604E+00+
*       9.2827757430E-01               0
GRID*               1434               08.5427812409E+005.0000000604E+00+
*       1.0225470383E+00               0
GRID*               1435               08.5683253201E+005.0000000604E+00+
*       2.1544505235E+00               0
GRID*               1436               08.1486548716E+005.0000000604E+00+
*       2.8833278472E+00               0
GRID*               1437               09.6602972982E+005.0000000604E+00+
*       1.8535185759E+00               0
GRID*               1438               01.0622354011E+015.0000000604E+00+
*       1.6486941221E+00               0
GRID*               1439               01.1466410078E+015.0000000604E+00+
*       1.4999467298E+00               0
GRID*               1440               01.2075410931E+015.0000000604E+00+
*       1.4179687820E+00               0
GRID*               1441               08.2605664404E+003.9999999998E+00+
*       3.6115077386E+00               0
GRID*               1442               08.9613976925E+003.9999999998E+00+
*       3.1256631484E+00               0
GRID*               1443               09.8445842223E+003.9999999998E+00+
*       2.7255422825E+00               0
GRID*               1444               01.0759355023E+013.9999999998E+00+
*       2.4216066008E+00               0
GRID*               1445               01.1636492153E+013.9999999998E+00+
*       2.1719886639E+00               0
GRID*               1446               01.2450498710E+013.9999999998E+00+
*       1.9113529000E+00               0
GRID*               1447               01.3390042440E+013.9999999998E+00+
*       1.2574952139E+00               0
GRID*               1448               01.2380000160E+013.9999999998E+00+
*       8.3261317944E-01               0
GRID*               1449               01.1509001261E+013.9999999998E+00+
*       7.8257575049E-01               0
GRID*               1450               01.0578337609E+013.9999999998E+00+
*       8.3861171365E-01               0
GRID*               1451               09.5857478329E+003.9999999998E+00+
*       9.2827778729E-01               0
GRID*               1452               08.5427806504E+003.9999999998E+00+
*       1.0225472513E+00               0
GRID*               1453               08.5683247295E+003.9999999998E+00+
*       2.1544507364E+00               0
GRID*               1454               08.1486542810E+003.9999999998E+00+
*       2.8833280602E+00               0
GRID*               1455               09.6602967076E+003.9999999998E+00+
*       1.8535187889E+00               0
GRID*               1456               01.0622353420E+013.9999999998E+00+
*       1.6486943351E+00               0
GRID*               1457               01.1466409487E+013.9999999998E+00+
*       1.4999469428E+00               0
GRID*               1458               01.2075410341E+013.9999999998E+00+
*       1.4179689950E+00               0
GRID*               1459               08.2605658571E+002.9999999392E+00+
*       3.6115079709E+00               0
GRID*               1460               08.9613971093E+002.9999999392E+00+
*       3.1256633808E+00               0
GRID*               1461               09.8445836391E+002.9999999392E+00+
*       2.7255425148E+00               0
GRID*               1462               01.0759354439E+012.9999999392E+00+
*       2.4216068331E+00               0
GRID*               1463               01.1636491570E+012.9999999392E+00+
*       2.1719888962E+00               0
GRID*               1464               01.2450498126E+012.9999999392E+00+
*       1.9113531323E+00               0
GRID*               1465               01.3390041857E+012.9999999392E+00+
*       1.2574954462E+00               0
GRID*               1466               01.2379999577E+012.9999999392E+00+
*       8.3261341176E-01               0
GRID*               1467               01.1509000678E+012.9999999392E+00+
*       7.8257598282E-01               0
GRID*               1468               01.0578337026E+012.9999999392E+00+
*       8.3861194597E-01               0
GRID*               1469               09.5857472497E+002.9999999392E+00+
*       9.2827801961E-01               0
GRID*               1470               08.5427800671E+002.9999999392E+00+
*       1.0225474836E+00               0
GRID*               1471               08.5683241462E+002.9999999392E+00+
*       2.1544509688E+00               0
GRID*               1472               08.1486536977E+002.9999999392E+00+
*       2.8833282925E+00               0
GRID*               1473               09.6602961243E+002.9999999392E+00+
*       1.8535190212E+00               0
GRID*               1474               01.0622352837E+012.9999999392E+00+
*       1.6486945675E+00               0
GRID*               1475               01.1466408904E+012.9999999392E+00+
*       1.4999471751E+00               0
GRID*               1476               01.2075409758E+012.9999999392E+00+
*       1.4179692273E+00               0
GRID*               1477               08.2605656534E+001.9999999167E+00+
*       3.6115080922E+00               0
GRID*               1478               08.9613969055E+001.9999999167E+00+
*       3.1256635020E+00               0
GRID*               1479               09.8445834353E+001.9999999167E+00+
*       2.7255426361E+00               0
GRID*               1480               01.0759354236E+011.9999999167E+00+
*       2.4216069544E+00               0
GRID*               1481               01.1636491366E+011.9999999167E+00+
*       2.1719890174E+00               0
GRID*               1482               01.2450497923E+011.9999999167E+00+
*       1.9113532536E+00               0
GRID*               1483               01.3390041653E+011.9999999167E+00+
*       1.2574955674E+00               0
GRID*               1484               01.2379999373E+011.9999999167E+00+
*       8.3261353301E-01               0
GRID*               1485               01.1509000474E+011.9999999167E+00+
*       7.8257610407E-01               0
GRID*               1486               01.0578336822E+011.9999999167E+00+
*       8.3861206722E-01               0
GRID*               1487               09.5857470459E+001.9999999167E+00+
*       9.2827814087E-01               0
GRID*               1488               08.5427798633E+001.9999999167E+00+
*       1.0225476049E+00               0
GRID*               1489               08.5683239425E+001.9999999167E+00+
*       2.1544510900E+00               0
GRID*               1490               08.1486534940E+001.9999999167E+00+
*       2.8833284137E+00               0
GRID*               1491               09.6602959206E+001.9999999167E+00+
*       1.8535191424E+00               0
GRID*               1492               01.0622352633E+011.9999999167E+00+
*       1.6486946887E+00               0
GRID*               1493               01.1466408700E+011.9999999167E+00+
*       1.4999472964E+00               0
GRID*               1494               01.2075409554E+011.9999999167E+00+
*       1.4179693486E+00               0
GRID*               1495               08.2605659472E+009.9999994608E-01+
*       3.6115080055E+00               0
GRID*               1496               08.9613971993E+009.9999994608E-01+
*       3.1256634153E+00               0
GRID*               1497               09.8445837291E+009.9999994608E-01+
*       2.7255425494E+00               0
GRID*               1498               01.0759354530E+019.9999994608E-01+
*       2.4216068677E+00               0
GRID*               1499               01.1636491660E+019.9999994608E-01+
*       2.1719889307E+00               0
GRID*               1500               01.2450498216E+019.9999994608E-01+
*       1.9113531669E+00               0
GRID*               1501               01.3390041947E+019.9999994608E-01+
*       1.2574954807E+00               0
GRID*               1502               01.2379999667E+019.9999994608E-01+
*       8.3261344631E-01               0
GRID*               1503               01.1509000768E+019.9999994608E-01+
*       7.8257601737E-01               0
GRID*               1504               01.0578337116E+019.9999994608E-01+
*       8.3861198052E-01               0
GRID*               1505               09.5857473397E+009.9999994608E-01+
*       9.2827805417E-01               0
GRID*               1506               08.5427801572E+009.9999994608E-01+
*       1.0225475182E+00               0
GRID*               1507               08.5683242363E+009.9999994608E-01+
*       2.1544510033E+00               0
GRID*               1508               08.1486537878E+009.9999994608E-01+
*       2.8833283270E+00               0
GRID*               1509               09.6602962144E+009.9999994608E-01+
*       1.8535190557E+00               0
GRID*               1510               01.0622352927E+019.9999994608E-01+
*       1.6486946020E+00               0
GRID*               1511               01.1466408994E+019.9999994608E-01+
*       1.4999472097E+00               0
GRID*               1512               01.2075409848E+019.9999994608E-01+
*       1.4179692619E+00               0
GRID*               1513               01.3390042725E+017.5000000269E+00+
*       1.2574951807E+00               0
GRID*               1514               01.4045021398E+017.0000000269E+00+
*       1.1978525726E+00               0
GRID*               1515               01.3530735697E+017.0000000269E+00+
*       6.2874754352E-01               0
GRID*               1516               01.3390043125E+016.5000000683E+00+
*       1.2574950220E+00               0
GRID*               1517               01.4045021537E+016.0000000415E+00+
*       1.1978525076E+00               0
GRID*               1518               01.3530735836E+016.0000000415E+00+
*       6.2874747848E-01               0
GRID*               1519               01.3390043148E+015.5000000717E+00+
*       1.2574949789E+00               0
GRID*               1520               01.4045021420E+015.0000000302E+00+
*       1.1978525295E+00               0
GRID*               1521               01.3530735719E+015.0000000302E+00+
*       6.2874750043E-01               0
GRID*               1522               01.3390042736E+014.5000000301E+00+
*       1.2574951074E+00               0
GRID*               1523               01.4045021125E+013.9999999999E+00+
*       1.1978526360E+00               0
GRID*               1524               01.3530735424E+013.9999999999E+00+
*       6.2874760693E-01               0
GRID*               1525               01.3390042149E+013.4999999695E+00+
*       1.2574953300E+00               0
GRID*               1526               01.4045020833E+012.9999999696E+00+
*       1.1978527522E+00               0
GRID*               1527               01.3530735133E+012.9999999696E+00+
*       6.2874772309E-01               0
GRID*               1528               01.3390041755E+012.4999999280E+00+
*       1.2574955068E+00               0
GRID*               1529               01.4045020731E+011.9999999583E+00+
*       1.1978528128E+00               0
GRID*               1530               01.3530735031E+011.9999999583E+00+
*       6.2874778372E-01               0
GRID*               1531               01.3390041800E+011.4999999314E+00+
*       1.2574955241E+00               0
GRID*               1532               01.4045020878E+019.9999997304E-01+
*       1.1978527695E+00               0
GRID*               1533               01.3530735178E+019.9999997304E-01+
*       6.2874774037E-01               0
GRID*               1534               01.3390042205E+014.9999997304E-01+
*       1.2574953775E+00               0
GRID*               1535               01.3562944648E+017.0000001694E+00+
*       1.8322283138E+00               0
GRID*               1536               01.3562943329E+016.0000000415E+00+
*       1.8322285139E+00               0
GRID*               1537               01.3562940064E+014.9999997244E+00+
*       1.8322291088E+00               0
GRID*               1538               01.3562939559E+013.9999996734E+00+
*       1.8322292534E+00               0
GRID*               1539               01.3562940133E+012.9999997265E+00+
*       1.8322292122E+00               0
GRID*               1540               01.3562941181E+011.9999998262E+00+
*       1.8322290635E+00               0
GRID*               1541               01.3562942281E+019.9999993332E-01+
*       1.8322288467E+00               0
GRID*               1542               01.2380000444E+017.5000000269E+00+
*       8.3261314625E-01               0
GRID*               1543               01.1509001546E+017.5000000269E+00+
*       7.8257571730E-01               0
GRID*               1544               01.2511428856E+017.0000000269E+00+
*       4.1630652632E-01               0
GRID*               1545               01.1944501257E+017.0000000537E+00+
*       8.0759433816E-01               0
GRID*               1546               01.1561643706E+017.0000000269E+00+
*       3.9128781184E-01               0
GRID*               1547               01.2380000845E+016.5000000683E+00+
*       8.3261298759E-01               0
GRID*               1548               01.1509001946E+016.5000000683E+00+
*       7.8257555864E-01               0
GRID*               1549               01.2511428995E+016.0000000415E+00+
*       4.1630646127E-01               0
GRID*               1550               01.1944501534E+016.0000000829E+00+
*       8.0759420807E-01               0
GRID*               1551               01.1561643845E+016.0000000415E+00+
*       3.9128774680E-01               0
GRID*               1552               01.2380000867E+015.5000000717E+00+
*       8.3261294450E-01               0
GRID*               1553               01.1509001968E+015.5000000717E+00+
*       7.8257551555E-01               0
GRID*               1554               01.2511428879E+015.0000000302E+00+
*       4.1630648322E-01               0
GRID*               1555               01.1944501301E+015.0000000604E+00+
*       8.0759425197E-01               0
GRID*               1556               01.1561643729E+015.0000000302E+00+
*       3.9128776875E-01               0
GRID*               1557               01.2380000455E+014.5000000301E+00+
*       8.3261307294E-01               0
GRID*               1558               01.1509001556E+014.5000000301E+00+
*       7.8257564400E-01               0
GRID*               1559               01.2511428583E+013.9999999999E+00+
*       4.1630658972E-01               0
GRID*               1560               01.1944500711E+013.9999999998E+00+
*       8.0759446497E-01               0
GRID*               1561               01.1561643433E+013.9999999999E+00+
*       3.9128787525E-01               0
GRID*               1562               01.2379999868E+013.4999999695E+00+
*       8.3261329560E-01               0
GRID*               1563               01.1509000970E+013.4999999695E+00+
*       7.8257586665E-01               0
GRID*               1564               01.2511428292E+012.9999999696E+00+
*       4.1630670588E-01               0
GRID*               1565               01.1944500127E+012.9999999392E+00+
*       8.0759469729E-01               0
GRID*               1566               01.1561643142E+012.9999999696E+00+
*       3.9128799141E-01               0
GRID*               1567               01.2379999475E+012.4999999280E+00+
*       8.3261347239E-01               0
GRID*               1568               01.1509000576E+012.4999999280E+00+
*       7.8257604344E-01               0
GRID*               1569               01.2511428190E+011.9999999583E+00+
*       4.1630676651E-01               0
GRID*               1570               01.1944499924E+011.9999999167E+00+
*       8.0759481854E-01               0
GRID*               1571               01.1561643040E+011.9999999583E+00+
*       3.9128805203E-01               0
GRID*               1572               01.2379999520E+011.4999999314E+00+
*       8.3261348966E-01               0
GRID*               1573               01.1509000621E+011.4999999314E+00+
*       7.8257606072E-01               0
GRID*               1574               01.2511428337E+019.9999997304E-01+
*       4.1630672316E-01               0
GRID*               1575               01.1944500217E+019.9999994608E-01+
*       8.0759473184E-01               0
GRID*               1576               01.1561643187E+019.9999997304E-01+
*       3.9128800868E-01               0
GRID*               1577               01.2379999925E+014.9999997304E-01+
*       8.3261334309E-01               0
GRID*               1578               01.1509001026E+014.9999997304E-01+
*       7.8257591415E-01               0
GRID*               1579               01.0578337893E+017.5000000269E+00+
*       8.3861168046E-01               0
GRID*               1580               01.0582026180E+017.0000000269E+00+
*       4.1930579342E-01               0
GRID*               1581               01.1043669981E+017.0000000537E+00+
*       8.1059360526E-01               0
GRID*               1582               01.0578338294E+016.5000000683E+00+
*       8.3861152180E-01               0
GRID*               1583               01.0582026318E+016.0000000415E+00+
*       4.1930572838E-01               0
GRID*               1584               01.1043670259E+016.0000000829E+00+
*       8.1059347518E-01               0
GRID*               1585               01.0578338316E+015.5000000717E+00+
*       8.3861147871E-01               0
GRID*               1586               01.0582026202E+015.0000000302E+00+
*       4.1930575033E-01               0
GRID*               1587               01.1043670026E+015.0000000604E+00+
*       8.1059351908E-01               0
GRID*               1588               01.0578337904E+014.5000000301E+00+
*       8.3861160715E-01               0
GRID*               1589               01.0582025907E+013.9999999999E+00+
*       4.1930585682E-01               0
GRID*               1590               01.1043669435E+013.9999999998E+00+
*       8.1059373207E-01               0
GRID*               1591               01.0578337318E+013.4999999695E+00+
*       8.3861182981E-01               0
GRID*               1592               01.0582025615E+012.9999999696E+00+
*       4.1930597299E-01               0
GRID*               1593               01.1043668852E+012.9999999392E+00+
*       8.1059396439E-01               0
GRID*               1594               01.0578336924E+012.4999999280E+00+
*       8.3861200660E-01               0
GRID*               1595               01.0582025513E+011.9999999583E+00+
*       4.1930603361E-01               0
GRID*               1596               01.1043668648E+011.9999999167E+00+
*       8.1059408565E-01               0
GRID*               1597               01.0578336969E+011.4999999314E+00+
*       8.3861202387E-01               0
GRID*               1598               01.0582025660E+019.9999997304E-01+
*       4.1930599026E-01               0
GRID*               1599               01.1043668942E+019.9999994608E-01+
*       8.1059399895E-01               0
GRID*               1600               01.0578337374E+014.9999997304E-01+
*       8.3861187730E-01               0
GRID*               1601               01.2075410625E+017.5000000269E+00+
*       1.4179689618E+00               0
GRID*               1602               01.1466409772E+017.5000000269E+00+
*       1.4999469096E+00               0
GRID*               1603               01.2227705796E+017.0000000537E+00+
*       1.1252909604E+00               0
GRID*               1604               01.1770910460E+017.0000000537E+00+
*       1.4589578421E+00               0
GRID*               1605               01.1487705920E+017.0000000537E+00+
*       1.1412612198E+00               0
GRID*               1606               01.2075411026E+016.5000000683E+00+
*       1.4179688031E+00               0
GRID*               1607               01.1466410172E+016.5000000683E+00+
*       1.4999467510E+00               0
GRID*               1608               01.2227706074E+016.0000000829E+00+
*       1.1252908303E+00               0
GRID*               1609               01.1770910738E+016.0000000829E+00+
*       1.4589577120E+00               0
GRID*               1610               01.1487706198E+016.0000000829E+00+
*       1.1412610898E+00               0
GRID*               1611               01.2075411048E+015.5000000717E+00+
*       1.4179687600E+00               0
GRID*               1612               01.1466410194E+015.5000000717E+00+
*       1.4999467079E+00               0
GRID*               1613               01.2227705841E+015.0000000604E+00+
*       1.1252908742E+00               0
GRID*               1614               01.1770910505E+015.0000000604E+00+
*       1.4589577559E+00               0
GRID*               1615               01.1487705965E+015.0000000604E+00+
*       1.1412611337E+00               0
GRID*               1616               01.2075410636E+014.5000000301E+00+
*       1.4179688885E+00               0
GRID*               1617               01.1466409783E+014.5000000301E+00+
*       1.4999468363E+00               0
GRID*               1618               01.2227705250E+013.9999999998E+00+
*       1.1252910872E+00               0
GRID*               1619               01.1770909914E+013.9999999998E+00+
*       1.4589579689E+00               0
GRID*               1620               01.1487705374E+013.9999999998E+00+
*       1.1412613467E+00               0
GRID*               1621               01.2075410049E+013.4999999695E+00+
*       1.4179691111E+00               0
GRID*               1622               01.1466409196E+013.4999999695E+00+
*       1.4999470590E+00               0
GRID*               1623               01.2227704667E+012.9999999392E+00+
*       1.1252913195E+00               0
GRID*               1624               01.1770909331E+012.9999999392E+00+
*       1.4589582012E+00               0
GRID*               1625               01.1487704791E+012.9999999392E+00+
*       1.1412615790E+00               0
GRID*               1626               01.2075409656E+012.4999999280E+00+
*       1.4179692879E+00               0
GRID*               1627               01.1466408802E+012.4999999280E+00+
*       1.4999472358E+00               0
GRID*               1628               01.2227704463E+011.9999999167E+00+
*       1.1252914408E+00               0
GRID*               1629               01.1770909127E+011.9999999167E+00+
*       1.4589583225E+00               0
GRID*               1630               01.1487704587E+011.9999999167E+00+
*       1.1412617002E+00               0
GRID*               1631               01.2075409701E+011.4999999314E+00+
*       1.4179693052E+00               0
GRID*               1632               01.1466408847E+011.4999999314E+00+
*       1.4999472530E+00               0
GRID*               1633               01.2227704757E+019.9999994608E-01+
*       1.1252913541E+00               0
GRID*               1634               01.1770909421E+019.9999994608E-01+
*       1.4589582358E+00               0
GRID*               1635               01.1487704881E+019.9999994608E-01+
*       1.1412616135E+00               0
GRID*               1636               01.2075410105E+014.9999997304E-01+
*       1.4179691586E+00               0
GRID*               1637               01.1466409252E+014.9999997304E-01+
*       1.4999471065E+00               0
GRID*               1638               01.0622353704E+017.5000000269E+00+
*       1.6486943019E+00               0
GRID*               1639               01.0600346061E+017.0000000537E+00+
*       1.2436528976E+00               0
GRID*               1640               01.1044382000E+017.0000000537E+00+
*       1.5743205122E+00               0
GRID*               1641               01.0622354105E+016.5000000683E+00+
*       1.6486941433E+00               0
GRID*               1642               01.0600346338E+016.0000000829E+00+
*       1.2436527675E+00               0
GRID*               1643               01.1044382277E+016.0000000829E+00+
*       1.5743203821E+00               0
GRID*               1644               01.0622354127E+015.5000000717E+00+
*       1.6486941002E+00               0
GRID*               1645               01.0600346105E+015.0000000604E+00+
*       1.2436528114E+00               0
GRID*               1646               01.1044382044E+015.0000000604E+00+
*       1.5743204260E+00               0
GRID*               1647               01.0622353715E+014.5000000301E+00+
*       1.6486942286E+00               0
GRID*               1648               01.0600345515E+013.9999999998E+00+
*       1.2436530244E+00               0
GRID*               1649               01.1044381454E+013.9999999998E+00+
*       1.5743206390E+00               0
GRID*               1650               01.0622353129E+013.4999999695E+00+
*       1.6486944513E+00               0
GRID*               1651               01.0600344931E+012.9999999392E+00+
*       1.2436532567E+00               0
GRID*               1652               01.1044380870E+012.9999999392E+00+
*       1.5743208713E+00               0
GRID*               1653               01.0622352735E+012.4999999280E+00+
*       1.6486946281E+00               0
GRID*               1654               01.0600344728E+011.9999999167E+00+
*       1.2436533780E+00               0
GRID*               1655               01.1044380667E+011.9999999167E+00+
*       1.5743209925E+00               0
GRID*               1656               01.0622352780E+011.4999999314E+00+
*       1.6486946454E+00               0
GRID*               1657               01.0600345021E+019.9999994608E-01+
*       1.2436532913E+00               0
GRID*               1658               01.1044380961E+019.9999994608E-01+
*       1.5743209058E+00               0
GRID*               1659               01.0622353185E+014.9999997304E-01+
*       1.6486944988E+00               0
GRID*               1660               01.0759355307E+017.5000000269E+00+
*       2.4216065676E+00               0
GRID*               1661               01.1636492438E+017.5000000269E+00+
*       2.1719886307E+00               0
GRID*               1662               01.0840832552E+017.0000000269E+00+
*       2.7950389696E+00               0
GRID*               1663               01.1197924134E+017.0000000537E+00+
*       2.2967975055E+00               0
GRID*               1664               01.1739754961E+017.0000000648E+00+
*       2.5129581849E+00               0
GRID*               1665               01.0759355707E+016.5000000683E+00+
*       2.4216064090E+00               0
GRID*               1666               01.1636492838E+016.5000000683E+00+
*       2.1719884720E+00               0
GRID*               1667               01.0840832691E+016.0000000415E+00+
*       2.7950389045E+00               0
GRID*               1668               01.1197924412E+016.0000000829E+00+
*       2.2967973754E+00               0
GRID*               1669               01.1739756030E+016.0000001718E+00+
*       2.5129578463E+00               0
GRID*               1670               01.0759355730E+015.5000000717E+00+
*       2.4216063659E+00               0
GRID*               1671               01.1636492860E+015.5000000717E+00+
*       2.1719884289E+00               0
GRID*               1672               01.0840832574E+015.0000000302E+00+
*       2.7950389265E+00               0
GRID*               1673               01.1197924179E+015.0000000604E+00+
*       2.2967974193E+00               0
GRID*               1674               01.1739757035E+015.0000002721E+00+
*       2.5129575382E+00               0
GRID*               1675               01.0759355318E+014.5000000301E+00+
*       2.4216064943E+00               0
GRID*               1676               01.1636492449E+014.5000000301E+00+
*       2.1719885574E+00               0
GRID*               1677               01.0840832279E+013.9999999999E+00+
*       2.7950390330E+00               0
GRID*               1678               01.1197923588E+013.9999999998E+00+
*       2.2967976323E+00               0
GRID*               1679               01.1739757583E+014.0000003258E+00+
*       2.5129573965E+00               0
GRID*               1680               01.0759354731E+013.4999999695E+00+
*       2.4216067170E+00               0
GRID*               1681               01.1636491862E+013.4999999695E+00+
*       2.1719887800E+00               0
GRID*               1682               01.0840831987E+012.9999999696E+00+
*       2.7950391491E+00               0
GRID*               1683               01.1197923005E+012.9999999392E+00+
*       2.2967978647E+00               0
GRID*               1684               01.1739757087E+013.0000002752E+00+
*       2.5129575729E+00               0
GRID*               1685               01.0759354338E+012.4999999280E+00+
*       2.4216068938E+00               0
GRID*               1686               01.1636491468E+012.4999999280E+00+
*       2.1719889568E+00               0
GRID*               1687               01.0840831885E+011.9999999583E+00+
*       2.7950392098E+00               0
GRID*               1688               01.1197922801E+011.9999999167E+00+
*       2.2967979859E+00               0
GRID*               1689               01.1739753915E+011.9999999583E+00+
*       2.5129585370E+00               0
GRID*               1690               01.0759354383E+011.4999999314E+00+
*       2.4216069110E+00               0
GRID*               1691               01.1636491513E+011.4999999314E+00+
*       2.1719889741E+00               0
GRID*               1692               01.0840832032E+019.9999997304E-01+
*       2.7950391664E+00               0
GRID*               1693               01.1197923095E+019.9999994608E-01+
*       2.2967978992E+00               0
GRID*               1694               01.1739752640E+019.9999983143E-01+
*       2.5129589118E+00               0
GRID*               1695               01.0759354787E+014.9999997304E-01+
*       2.4216067645E+00               0
GRID*               1696               01.1636491918E+014.9999997304E-01+
*       2.1719888275E+00               0
GRID*               1697               01.2450498994E+017.5000000269E+00+
*       1.9113528668E+00               0
GRID*               1698               01.2616339887E+017.0000001387E+00+
*       2.2555436479E+00               0
GRID*               1699               01.2043495978E+017.0000000537E+00+
*       2.0416706551E+00               0
GRID*               1700               01.2450499394E+016.5000000683E+00+
*       1.9113527082E+00               0
GRID*               1701               01.2616342173E+016.0000003646E+00+
*       2.2555430764E+00               0
GRID*               1702               01.2043496255E+016.0000000829E+00+
*       2.0416705251E+00               0
GRID*               1703               01.2450499417E+015.5000000717E+00+
*       1.9113526651E+00               0
GRID*               1704               01.2616342771E+015.0000004253E+00+
*       2.2555429299E+00               0
GRID*               1705               01.2043496022E+015.0000000604E+00+
*       2.0416705690E+00               0
GRID*               1706               01.2450499005E+014.5000000301E+00+
*       1.9113527935E+00               0
GRID*               1707               01.2616338439E+013.9999999999E+00+
*       2.2555439883E+00               0
GRID*               1708               01.2043495431E+013.9999999998E+00+
*       2.0416707819E+00               0
GRID*               1709               01.2450498418E+013.4999999695E+00+
*       1.9113530162E+00               0
GRID*               1710               01.2616334111E+012.9999995745E+00+
*       2.2555450564E+00               0
GRID*               1711               01.2043494848E+012.9999999392E+00+
*       2.0416710143E+00               0
GRID*               1712               01.2450498025E+012.4999999280E+00+
*       1.9113531930E+00               0
GRID*               1713               01.2616334723E+011.9999996351E+00+
*       2.2555449486E+00               0
GRID*               1714               01.2043494644E+011.9999999167E+00+
*       2.0416711355E+00               0
GRID*               1715               01.2450498070E+011.4999999314E+00+
*       1.9113532103E+00               0
GRID*               1716               01.2616337017E+019.9999986122E-01+
*       2.2555443988E+00               0
GRID*               1717               01.2043494938E+019.9999994608E-01+
*       2.0416710488E+00               0
GRID*               1718               01.2450498474E+014.9999997304E-01+
*       1.9113530637E+00               0
GRID*               1719               01.0690854767E+017.0000000537E+00+
*       2.0351503412E+00               0
GRID*               1720               01.1551451366E+017.0000000537E+00+
*       1.8359676765E+00               0
GRID*               1721               01.0690855045E+016.0000000829E+00+
*       2.0351502111E+00               0
GRID*               1722               01.1551451644E+016.0000000829E+00+
*       1.8359675464E+00               0
GRID*               1723               01.0690854812E+015.0000000604E+00+
*       2.0351502550E+00               0
GRID*               1724               01.1551451411E+015.0000000604E+00+
*       1.8359675903E+00               0
GRID*               1725               01.0690854221E+013.9999999998E+00+
*       2.0351504680E+00               0
GRID*               1726               01.1551450820E+013.9999999998E+00+
*       1.8359678033E+00               0
GRID*               1727               01.0690853638E+012.9999999392E+00+
*       2.0351507003E+00               0
GRID*               1728               01.1551450237E+012.9999999392E+00+
*       1.8359680357E+00               0
GRID*               1729               01.0690853434E+011.9999999167E+00+
*       2.0351508215E+00               0
GRID*               1730               01.1551450033E+011.9999999167E+00+
*       1.8359681569E+00               0
GRID*               1731               01.0690853728E+019.9999994608E-01+
*       2.0351507348E+00               0
GRID*               1732               01.1551450327E+019.9999994608E-01+
*       1.8359680702E+00               0
GRID*               1733               01.2262955071E+017.0000000537E+00+
*       1.6646608207E+00               0
GRID*               1734               01.2262955349E+016.0000000829E+00+
*       1.6646606906E+00               0
GRID*               1735               01.2262955116E+015.0000000604E+00+
*       1.6646607345E+00               0
GRID*               1736               01.2262954525E+013.9999999998E+00+
*       1.6646609475E+00               0
GRID*               1737               01.2262953942E+012.9999999392E+00+
*       1.6646611798E+00               0
GRID*               1738               01.2262953738E+011.9999999167E+00+
*       1.6646613011E+00               0
GRID*               1739               01.2262954032E+019.9999994608E-01+
*       1.6646612144E+00               0
GRID*               1740               08.5427809347E+007.5000000269E+00+
*       1.0225472181E+00               0
GRID*               1741               08.5356762989E+007.0000000269E+00+
*       5.1127356225E-01               0
GRID*               1742               08.0213905982E+007.0000000269E+00+
*       1.0112735622E+00               0
GRID*               1743               08.5427813351E+006.5000000683E+00+
*       1.0225470595E+00               0
GRID*               1744               08.5356764376E+006.0000000415E+00+
*       5.1127349721E-01               0
GRID*               1745               08.0213907369E+006.0000000415E+00+
*       1.0112734972E+00               0
GRID*               1746               08.5427813574E+005.5000000717E+00+
*       1.0225470164E+00               0
GRID*               1747               08.5356763211E+005.0000000302E+00+
*       5.1127351916E-01               0
GRID*               1748               08.0213906205E+005.0000000302E+00+
*       1.0112735192E+00               0
GRID*               1749               08.5427809457E+004.5000000301E+00+
*       1.0225471448E+00               0
GRID*               1750               08.5356760258E+003.9999999999E+00+
*       5.1127362565E-01               0
GRID*               1751               08.0213903252E+003.9999999999E+00+
*       1.0112736257E+00               0
GRID*               1752               08.5427803587E+003.4999999695E+00+
*       1.0225473675E+00               0
GRID*               1753               08.5356757342E+002.9999999696E+00+
*       5.1127374181E-01               0
GRID*               1754               08.0213900336E+002.9999999696E+00+
*       1.0112737418E+00               0
GRID*               1755               08.5427799652E+002.4999999280E+00+
*       1.0225475443E+00               0
GRID*               1756               08.5356756323E+001.9999999583E+00+
*       5.1127380244E-01               0
GRID*               1757               08.0213899317E+001.9999999583E+00+
*       1.0112738024E+00               0
GRID*               1758               08.5427800103E+001.4999999314E+00+
*       1.0225475615E+00               0
GRID*               1759               08.5356757793E+009.9999997304E-01+
*       5.1127375909E-01               0
GRID*               1760               08.0213900786E+009.9999997304E-01+
*       1.0112737591E+00               0
GRID*               1761               08.5427804151E+004.9999997304E-01+
*       1.0225474150E+00               0
GRID*               1762               08.5683250138E+007.5000000269E+00+
*       2.1544507033E+00               0
GRID*               1763               08.5555532360E+007.0000000537E+00+
*       1.5884988671E+00               0
GRID*               1764               08.0341626378E+007.0000000269E+00+
*       2.0772253048E+00               0
GRID*               1765               08.5683254143E+006.5000000683E+00+
*       2.1544505446E+00               0
GRID*               1766               08.5555535135E+006.0000000829E+00+
*       1.5884987370E+00               0
GRID*               1767               08.0341627765E+006.0000000415E+00+
*       2.0772252398E+00               0
GRID*               1768               08.5683254365E+005.5000000717E+00+
*       2.1544505015E+00               0
GRID*               1769               08.5555532805E+005.0000000604E+00+
*       1.5884987809E+00               0
GRID*               1770               08.0341626600E+005.0000000302E+00+
*       2.0772252617E+00               0
GRID*               1771               08.5683250248E+004.5000000301E+00+
*       2.1544506299E+00               0
GRID*               1772               08.5555526899E+003.9999999998E+00+
*       1.5884989939E+00               0
GRID*               1773               08.0341623648E+003.9999999999E+00+
*       2.0772253682E+00               0
GRID*               1774               08.5683244379E+003.4999999695E+00+
*       2.1544508526E+00               0
GRID*               1775               08.5555521067E+002.9999999392E+00+
*       1.5884992262E+00               0
GRID*               1776               08.0341620731E+002.9999999696E+00+
*       2.0772254844E+00               0
GRID*               1777               08.5683240444E+002.4999999280E+00+
*       2.1544510294E+00               0
GRID*               1778               08.5555519029E+001.9999999167E+00+
*       1.5884993474E+00               0
GRID*               1779               08.0341619712E+001.9999999583E+00+
*       2.0772255450E+00               0
GRID*               1780               08.5683240894E+001.4999999314E+00+
*       2.1544510467E+00               0
GRID*               1781               08.5555521968E+009.9999994608E-01+
*       1.5884992608E+00               0
GRID*               1782               08.0341621182E+009.9999997304E-01+
*       2.0772255017E+00               0
GRID*               1783               08.5683244942E+004.9999997304E-01+
*       2.1544509001E+00               0
GRID*               1784               08.1486545653E+007.5000000269E+00+
*       2.8833280270E+00               0
GRID*               1785               08.2605667247E+007.5000000269E+00+
*       3.6115077054E+00               0
GRID*               1786               07.8243274135E+007.0000000269E+00+
*       2.9416639667E+00               0
GRID*               1787               08.2046109067E+007.0000000537E+00+
*       3.2474177726E+00               0
GRID*               1788               07.8802834932E+007.0000000269E+00+
*       3.8057538059E+00               0
GRID*               1789               08.1486549658E+006.5000000683E+00+
*       2.8833278683E+00               0
GRID*               1790               08.2605671252E+006.5000000683E+00+
*       3.6115075468E+00               0
GRID*               1791               07.8243275523E+006.0000000415E+00+
*       2.9416639016E+00               0
GRID*               1792               08.2046111842E+006.0000000829E+00+
*       3.2474176425E+00               0
GRID*               1793               07.8802836320E+006.0000000415E+00+
*       3.8057537409E+00               0
GRID*               1794               08.1486549880E+005.5000000717E+00+
*       2.8833278252E+00               0
GRID*               1795               08.2605671474E+005.5000000717E+00+
*       3.6115075037E+00               0
GRID*               1796               07.8243274358E+005.0000000302E+00+
*       2.9416639236E+00               0
GRID*               1797               08.2046109513E+005.0000000604E+00+
*       3.2474176864E+00               0
GRID*               1798               07.8802835155E+005.0000000302E+00+
*       3.8057537628E+00               0
GRID*               1799               08.1486545763E+004.5000000301E+00+
*       2.8833279537E+00               0
GRID*               1800               08.2605667357E+004.5000000301E+00+
*       3.6115076321E+00               0
GRID*               1801               07.8243271405E+003.9999999999E+00+
*       2.9416640301E+00               0
GRID*               1802               08.2046103607E+003.9999999998E+00+
*       3.2474178994E+00               0
GRID*               1803               07.8802832202E+003.9999999999E+00+
*       3.8057538693E+00               0
GRID*               1804               08.1486539894E+003.4999999695E+00+
*       2.8833281763E+00               0
GRID*               1805               08.2605661488E+003.4999999695E+00+
*       3.6115078548E+00               0
GRID*               1806               07.8243268489E+002.9999999696E+00+
*       2.9416641462E+00               0
GRID*               1807               08.2046097774E+002.9999999392E+00+
*       3.2474181317E+00               0
GRID*               1808               07.8802829286E+002.9999999696E+00+
*       3.8057539855E+00               0
GRID*               1809               08.1486535959E+002.4999999280E+00+
*       2.8833283531E+00               0
GRID*               1810               08.2605657552E+002.4999999280E+00+
*       3.6115080316E+00               0
GRID*               1811               07.8243267470E+001.9999999583E+00+
*       2.9416642069E+00               0
GRID*               1812               08.2046095737E+001.9999999167E+00+
*       3.2474182530E+00               0
GRID*               1813               07.8802828267E+001.9999999583E+00+
*       3.8057540461E+00               0
GRID*               1814               08.1486536409E+001.4999999314E+00+
*       2.8833283704E+00               0
GRID*               1815               08.2605658003E+001.4999999314E+00+
*       3.6115080488E+00               0
GRID*               1816               07.8243268939E+009.9999997304E-01+
*       2.9416641635E+00               0
GRID*               1817               08.2046098675E+009.9999994608E-01+
*       3.2474181663E+00               0
GRID*               1818               07.8802829736E+009.9999997304E-01+
*       3.8057540027E+00               0
GRID*               1819               08.1486540457E+004.9999997304E-01+
*       2.8833282238E+00               0
GRID*               1820               08.2605662051E+004.9999997304E-01+
*       3.6115079023E+00               0
GRID*               1821               08.2848684583E+007.0000000655E+00+
*       4.0356221925E+00               0
GRID*               1822               08.2848694270E+006.0000001726E+00+
*       4.0356216270E+00               0
GRID*               1823               08.2848703118E+005.0000002727E+00+
*       4.0356210453E+00               0
GRID*               1824               08.2848707694E+004.0000003261E+00+
*       4.0356206979E+00               0
GRID*               1825               08.2848702952E+003.0000002753E+00+
*       4.0356209241E+00               0
GRID*               1826               08.2848674526E+001.9999999583E+00+
*       4.0356226372E+00               0
GRID*               1827               08.2848663309E+009.9999983108E-01+
*       4.0356233587E+00               0
GRID*               1828               08.3584900513E+007.0000000537E+00+
*       2.5188892715E+00               0
GRID*               1829               08.3584903288E+006.0000000829E+00+
*       2.5188891414E+00               0
GRID*               1830               08.3584900958E+005.0000000604E+00+
*       2.5188891853E+00               0
GRID*               1831               08.3584895053E+003.9999999998E+00+
*       2.5188893983E+00               0
GRID*               1832               08.3584889220E+002.9999999392E+00+
*       2.5188896306E+00               0
GRID*               1833               08.3584887182E+001.9999999167E+00+
*       2.5188897519E+00               0
GRID*               1834               08.3584890121E+009.9999994608E-01+
*       2.5188896652E+00               0
GRID*               1835               09.5857481172E+007.5000000269E+00+
*       9.2827775410E-01               0
GRID*               1836               01.0082043267E+017.0000000537E+00+
*       8.8344462366E-01               0
GRID*               1837               09.5714455908E+007.0000000269E+00+
*       4.6413883024E-01               0
GRID*               1838               09.5857485177E+006.5000000683E+00+
*       9.2827759544E-01               0
GRID*               1839               01.0082043545E+016.0000000829E+00+
*       8.8344449358E-01               0
GRID*               1840               09.5714457295E+006.0000000415E+00+
*       4.6413876520E-01               0
GRID*               1841               09.5857485400E+005.5000000717E+00+
*       9.2827755235E-01               0
GRID*               1842               01.0082043312E+015.0000000604E+00+
*       8.8344453748E-01               0
GRID*               1843               09.5714456131E+005.0000000302E+00+
*       4.6413878715E-01               0
GRID*               1844               09.5857481282E+004.5000000301E+00+
*       9.2827768079E-01               0
GRID*               1845               01.0082042721E+013.9999999998E+00+
*       8.8344475047E-01               0
GRID*               1846               09.5714453178E+003.9999999999E+00+
*       4.6413889364E-01               0
GRID*               1847               09.5857475413E+003.4999999695E+00+
*       9.2827790345E-01               0
GRID*               1848               01.0082042138E+012.9999999392E+00+
*       8.8344498279E-01               0
GRID*               1849               09.5714450262E+002.9999999696E+00+
*       4.6413900981E-01               0
GRID*               1850               09.5857471478E+002.4999999280E+00+
*       9.2827808024E-01               0
GRID*               1851               01.0082041934E+011.9999999167E+00+
*       8.8344510404E-01               0
GRID*               1852               09.5714449243E+001.9999999583E+00+
*       4.6413907043E-01               0
GRID*               1853               09.5857471928E+001.4999999314E+00+
*       9.2827809752E-01               0
GRID*               1854               01.0082042228E+019.9999994608E-01+
*       8.8344501734E-01               0
GRID*               1855               09.5714450712E+009.9999997304E-01+
*       4.6413902708E-01               0
GRID*               1856               09.5857475976E+004.9999997304E-01+
*       9.2827795094E-01               0
GRID*               1857               09.0642647877E+007.0000000537E+00+
*       9.7541239249E-01               0
GRID*               1858               09.0642650652E+006.0000000829E+00+
*       9.7541226240E-01               0
GRID*               1859               09.0642648322E+005.0000000604E+00+
*       9.7541230631E-01               0
GRID*               1860               09.0642642417E+003.9999999998E+00+
*       9.7541251930E-01               0
GRID*               1861               09.0642636584E+002.9999999392E+00+
*       9.7541275162E-01               0
GRID*               1862               09.0642634546E+001.9999999167E+00+
*       9.7541287287E-01               0
GRID*               1863               09.0642637485E+009.9999994608E-01+
*       9.7541278617E-01               0
GRID*               1864               09.6602969919E+007.5000000269E+00+
*       1.8535187557E+00               0
GRID*               1865               01.0141325610E+017.0000000537E+00+
*       1.7511064352E+00               0
GRID*               1866               09.6230228163E+007.0000000537E+00+
*       1.3908981613E+00               0
GRID*               1867               09.6602973924E+006.5000000683E+00+
*       1.8535185970E+00               0
GRID*               1868               01.0141325887E+016.0000000829E+00+
*       1.7511063051E+00               0
GRID*               1869               09.6230230938E+006.0000000829E+00+
*       1.3908980312E+00               0
GRID*               1870               09.6602974146E+005.5000000717E+00+
*       1.8535185539E+00               0
GRID*               1871               01.0141325654E+015.0000000604E+00+
*       1.7511063490E+00               0
GRID*               1872               09.6230228608E+005.0000000604E+00+
*       1.3908980751E+00               0
GRID*               1873               09.6602970029E+004.5000000301E+00+
*       1.8535186824E+00               0
GRID*               1874               01.0141325064E+013.9999999998E+00+
*       1.7511065620E+00               0
GRID*               1875               09.6230222703E+003.9999999998E+00+
*       1.3908982881E+00               0
GRID*               1876               09.6602964160E+003.4999999695E+00+
*       1.8535189050E+00               0
GRID*               1877               01.0141324481E+012.9999999392E+00+
*       1.7511067943E+00               0
GRID*               1878               09.6230216870E+002.9999999392E+00+
*       1.3908985204E+00               0
GRID*               1879               09.6602960225E+002.4999999280E+00+
*       1.8535190818E+00               0
GRID*               1880               01.0141324277E+011.9999999167E+00+
*       1.7511069156E+00               0
GRID*               1881               09.6230214832E+001.9999999167E+00+
*       1.3908986416E+00               0
GRID*               1882               09.6602960675E+001.4999999314E+00+
*       1.8535190991E+00               0
GRID*               1883               01.0141324571E+019.9999994608E-01+
*       1.7511068289E+00               0
GRID*               1884               09.6230217771E+009.9999994608E-01+
*       1.3908985549E+00               0
GRID*               1885               09.6602964723E+004.9999997304E-01+
*       1.8535189525E+00               0
GRID*               1886               09.8445845066E+007.5000000269E+00+
*       2.7255422493E+00               0
GRID*               1887               09.9342593376E+007.0000001700E+00+
*       3.1337916245E+00               0
GRID*               1888               01.0301970169E+017.0000000537E+00+
*       2.5735743149E+00               0
GRID*               1889               09.8445849071E+006.5000000683E+00+
*       2.7255420907E+00               0
GRID*               1890               09.9342581353E+006.0000000415E+00+
*       3.1337921888E+00               0
GRID*               1891               01.0301970446E+016.0000000829E+00+
*       2.5735741848E+00               0
GRID*               1892               09.8445849294E+005.5000000717E+00+
*       2.7255420476E+00               0
GRID*               1893               09.9342551215E+004.9999997241E+00+
*       3.1337935706E+00               0
GRID*               1894               01.0301970213E+015.0000000604E+00+
*       2.5735742287E+00               0
GRID*               1895               09.8445845176E+004.5000000301E+00+
*       2.7255421760E+00               0
GRID*               1896               09.9342546332E+003.9999996724E+00+
*       3.1337937676E+00               0
GRID*               1897               01.0301969623E+013.9999999998E+00+
*       2.5735744417E+00               0
GRID*               1898               09.8445839307E+003.4999999695E+00+
*       2.7255423987E+00               0
GRID*               1899               09.9342551375E+002.9999997247E+00+
*       3.1337935102E+00               0
GRID*               1900               01.0301969039E+012.9999999392E+00+
*       2.5735746740E+00               0
GRID*               1901               09.8445835372E+002.4999999280E+00+
*       2.7255425755E+00               0
GRID*               1902               09.9342560941E+001.9999998240E+00+
*       3.1337930741E+00               0
GRID*               1903               01.0301968835E+011.9999999167E+00+
*       2.5735747952E+00               0
GRID*               1904               09.8445835822E+001.4999999314E+00+
*       2.7255425927E+00               0
GRID*               1905               09.9342571183E+009.9999993157E-01+
*       3.1337926190E+00               0
GRID*               1906               01.0301969129E+019.9999994608E-01+
*       2.5735747085E+00               0
GRID*               1907               09.8445839870E+004.9999997304E-01+
*       2.7255424462E+00               0
GRID*               1908               09.7524410110E+007.0000000537E+00+
*       2.2895304089E+00               0
GRID*               1909               09.7524412885E+006.0000000829E+00+
*       2.2895302788E+00               0
GRID*               1910               09.7524410555E+005.0000000604E+00+
*       2.2895303227E+00               0
GRID*               1911               09.7524404650E+003.9999999998E+00+
*       2.2895305357E+00               0
GRID*               1912               09.7524398817E+002.9999999392E+00+
*       2.2895307680E+00               0
GRID*               1913               09.7524396779E+001.9999999167E+00+
*       2.2895308893E+00               0
GRID*               1914               09.7524399718E+009.9999994608E-01+
*       2.2895308026E+00               0
GRID*               1915               08.9613979768E+007.5000000269E+00+
*       3.1256631153E+00               0
GRID*               1916               09.0565307937E+007.0000001438E+00+
*       3.5493653520E+00               0
GRID*               1917               09.4029915035E+007.0000000537E+00+
*       2.9256025887E+00               0
GRID*               1918               08.9613983773E+006.5000000683E+00+
*       3.1256629566E+00               0
GRID*               1919               09.0565328761E+006.0000003690E+00+
*       3.5493642419E+00               0
GRID*               1920               09.4029917809E+006.0000000829E+00+
*       2.9256024586E+00               0
GRID*               1921               08.9613983996E+005.5000000717E+00+
*       3.1256629135E+00               0
GRID*               1922               09.0565334060E+005.0000004269E+00+
*       3.5493639162E+00               0
GRID*               1923               09.4029915480E+005.0000000604E+00+
*       2.9256025025E+00               0
GRID*               1924               08.9613979878E+004.5000000301E+00+
*       3.1256630420E+00               0
GRID*               1925               09.0565294575E+003.9999999999E+00+
*       3.5493659871E+00               0
GRID*               1926               09.4029909574E+003.9999999998E+00+
*       2.9256027155E+00               0
GRID*               1927               08.9613974009E+003.4999999695E+00+
*       3.1256632646E+00               0
GRID*               1928               09.0565255129E+002.9999995733E+00+
*       3.5493680675E+00               0
GRID*               1929               09.4029903742E+002.9999999392E+00+
*       2.9256029478E+00               0
GRID*               1930               08.9613970074E+002.4999999280E+00+
*       3.1256634414E+00               0
GRID*               1931               09.0565260575E+001.9999996315E+00+
*       3.5493677805E+00               0
GRID*               1932               09.4029901704E+001.9999999167E+00+
*       2.9256030691E+00               0
GRID*               1933               08.9613970524E+001.4999999314E+00+
*       3.1256634587E+00               0
GRID*               1934               09.0565281479E+009.9999985655E-01+
*       3.5493666921E+00               0
GRID*               1935               09.4029904642E+009.9999994608E-01+
*       2.9256029824E+00               0
GRID*               1936               08.9613974572E+004.9999997304E-01+
*       3.1256633121E+00               0
GRID*               1937               01.2920271121E+017.0000000537E+00+
*       1.5844239301E+00               0
GRID*               1938               01.2920271399E+016.0000000829E+00+
*       1.5844238000E+00               0
GRID*               1939               01.2920271166E+015.0000000604E+00+
*       1.5844238440E+00               0
GRID*               1940               01.2920270575E+013.9999999998E+00+
*       1.5844240569E+00               0
GRID*               1941               01.2920269992E+012.9999999392E+00+
*       1.5844242893E+00               0
GRID*               1942               01.2920269788E+011.9999999167E+00+
*       1.5844244105E+00               0
GRID*               1943               01.2920270082E+019.9999994608E-01+
*       1.5844243238E+00               0
GRID*               1944               01.2885021846E+017.0000000537E+00+
*       1.0450540698E+00               0
GRID*               1945               01.2885022124E+016.0000000829E+00+
*       1.0450539398E+00               0
GRID*               1946               01.2885021891E+015.0000000604E+00+
*       1.0450539837E+00               0
GRID*               1947               01.2885021300E+013.9999999998E+00+
*       1.0450541966E+00               0
GRID*               1948               01.2885020717E+012.9999999392E+00+
*       1.0450544290E+00               0
GRID*               1949               01.2885020513E+011.9999999167E+00+
*       1.0450545502E+00               0
GRID*               1950               01.2885020807E+019.9999994608E-01+
*       1.0450544635E+00               0
GRID*               1951               09.1143112646E+007.0000000537E+00+
*       2.0039846358E+00               0
GRID*               1952               09.1143115421E+006.0000000829E+00+
*       2.0039845058E+00               0
GRID*               1953               09.1143113091E+005.0000000604E+00+
*       2.0039845497E+00               0
GRID*               1954               09.1143107186E+003.9999999998E+00+
*       2.0039847626E+00               0
GRID*               1955               09.1143101353E+002.9999999392E+00+
*       2.0039849950E+00               0
GRID*               1956               09.1143099315E+001.9999999167E+00+
*       2.0039851162E+00               0
GRID*               1957               09.1143102254E+009.9999994608E-01+
*       2.0039850295E+00               0
GRID*               1958               08.7648617570E+007.0000000537E+00+
*       2.6400568156E+00               0
GRID*               1959               08.7648620345E+006.0000000829E+00+
*       2.6400566856E+00               0
GRID*               1960               08.7648618016E+005.0000000604E+00+
*       2.6400567295E+00               0
GRID*               1961               08.7648612110E+003.9999999998E+00+
*       2.6400569424E+00               0
GRID*               1962               08.7648606278E+002.9999999392E+00+
*       2.6400571748E+00               0
GRID*               1963               08.7648604240E+001.9999999167E+00+
*       2.6400572960E+00               0
GRID*               1964               08.7648607178E+009.9999994608E-01+
*       2.6400572093E+00               0
GRID*               1965               08.6109826125E+007.0000000537E+00+
*       3.3685853167E+00               0
GRID*               1966               08.6109828900E+006.0000000829E+00+
*       3.3685851866E+00               0
GRID*               1967               08.6109826570E+005.0000000604E+00+
*       3.3685852305E+00               0
GRID*               1968               08.6109820665E+003.9999999998E+00+
*       3.3685854435E+00               0
GRID*               1969               08.6109814832E+002.9999999392E+00+
*       3.3685856759E+00               0
GRID*               1970               08.6109812794E+001.9999999167E+00+
*       3.3685857971E+00               0
GRID*               1971               08.6109815733E+009.9999994608E-01+
*       3.3685857104E+00               0
GRID*                890               00.0000000000E+000.0000000000E+00+
*       5.0000000000E+00               0
GRID*                891               00.0000000000E+000.0000000000E+00+
*       0.0000000000E+00               0
GRID*                892               00.0000000000E+003.0000000000E+00+
*       0.0000000000E+00               0
GRID*                893               00.0000000000E+003.0000000000E+00+
*       5.0000000000E+00               0
GRID*                894               06.0000000000E+000.0000000000E+00+
*       0.0000000000E+00               0
GRID*                895               06.0000000000E+000.0000000000E+00+
*       5.0000000000E+00               0
GRID*                896               06.0000000000E+003.0000000000E+00+
*       0.0000000000E+00               0
GRID*                897               06.0000000000E+003.0000000000E+00+
*       5.0000000000E+00               0
GRID*                723               00.0000000000E+000.0000000000E+00+
*       4.0000000000E+00               0
GRID*                724               00.0000000000E+000.0000000000E+00+
*       3.0000000000E+00               0
GRID*                725               00.0000000000E+000.0000000000E+00+
*       2.0000000000E+00               0
GRID*                726               00.0000000000E+000.0000000000E+00+
*       1.0000000000E+00               0
GRID*                727               00.0000000000E+000.0000000000E+00+
*       5.0000000000E-01               0
GRID*                728               00.0000000000E+000.0000000000E+00+
*       1.5000000000E+00               0
GRID*                729               00.0000000000E+000.0000000000E+00+
*       2.5000000000E+00               0
GRID*                730               00.0000000000E+000.0000000000E+00+
*       3.5000000000E+00               0
GRID*                731               00.0000000000E+000.0000000000E+00+
*       4.5000000000E+00               0
GRID*                732               00.0000000000E+002.0000000000E+00+
*       0.0000000000E+00               0
GRID*                733               00.0000000000E+001.0000000000E+00+
*       0.0000000000E+00               0
GRID*                734               00.0000000000E+002.5000000000E+00+
*       0.0000000000E+00               0
GRID*                735               00.0000000000E+001.5000000000E+00+
*       0.0000000000E+00               0
GRID*                736               00.0000000000E+005.0000000000E-01+
*       0.0000000000E+00               0
GRID*                737               00.0000000000E+002.0000000000E+00+
*       5.0000000000E+00               0
GRID*                738               00.0000000000E+001.0000000000E+00+
*       5.0000000000E+00               0
GRID*                739               00.0000000000E+002.5000000000E+00+
*       5.0000000000E+00               0
GRID*                740               00.0000000000E+005.0000000000E-01+
*       5.0000000000E+00               0
GRID*                741               00.0000000000E+001.5000000000E+00+
*       5.0000000000E+00               0
GRID*                742               00.0000000000E+003.0000000000E+00+
*       1.0000000000E+00               0
GRID*                743               00.0000000000E+003.0000000000E+00+
*       2.0000000000E+00               0
GRID*                744               00.0000000000E+003.0000000000E+00+
*       3.0000000000E+00               0
GRID*                745               00.0000000000E+003.0000000000E+00+
*       4.0000000000E+00               0
GRID*                746               00.0000000000E+003.0000000000E+00+
*       4.5000000000E+00               0
GRID*                747               00.0000000000E+003.0000000000E+00+
*       3.5000000000E+00               0
GRID*                748               00.0000000000E+003.0000000000E+00+
*       2.5000000000E+00               0
GRID*                749               00.0000000000E+003.0000000000E+00+
*       1.5000000000E+00               0
GRID*                750               00.0000000000E+003.0000000000E+00+
*       5.0000000000E-01               0
GRID*                828               02.3237971211E+003.0000000000E+00+
*       3.8453286239E+00               0
GRID*                829               01.8777261197E+003.0000000000E+00+
*       3.5472695582E+00               0
GRID*                830               01.5796589363E+003.0000000000E+00+
*       3.1011734745E+00               0
GRID*                831               01.4750005056E+003.0000000000E+00+
*       2.5749937145E+00               0
GRID*                832               01.5796711557E+003.0000000000E+00+
*       2.0487970344E+00               0
GRID*                833               01.8777353161E+003.0000000000E+00+
*       1.6027218580E+00               0
GRID*                834               02.3238145983E+003.0000000000E+00+
*       1.3046638425E+00               0
GRID*                835               02.8500127487E+003.0000000000E+00+
*       1.2000005293E+00               0
GRID*                836               03.3761910250E+003.0000000000E+00+
*       1.3046663072E+00               0
GRID*                837               03.8222829964E+003.0000000000E+00+
*       1.6027396053E+00               0
GRID*                838               04.1203358459E+003.0000000000E+00+
*       2.0488147478E+00               0
GRID*                839               04.2249999045E+003.0000000000E+00+
*       2.5750191910E+00               0
GRID*                840               04.1203309379E+003.0000000000E+00+
*       3.1011968368E+00               0
GRID*                841               03.8222650916E+003.0000000000E+00+
*       3.5472785429E+00               0
GRID*                842               03.3761791691E+003.0000000000E+00+
*       3.8453380099E+00               0
GRID*                843               02.5817439502E+003.0000000000E+00+
*       3.9235778731E+00               0
GRID*                844               02.0860810274E+003.0000000000E+00+
*       3.7182640713E+00               0
GRID*                845               01.7067240860E+003.0000000000E+00+
*       3.3389001308E+00               0
GRID*                846               01.5014197516E+003.0000000000E+00+
*       2.8432469813E+00               0
GRID*                847               01.5014232699E+003.0000000000E+00+
*       2.3067375881E+00               0
GRID*                848               01.7067306511E+003.0000000000E+00+
*       1.8110891187E+00               0
GRID*                849               02.0861049479E+003.0000000000E+00+
*       1.4317200822E+00               0
GRID*                850               02.5817562528E+003.0000000000E+00+
*       1.2264195528E+00               0
GRID*                851               03.1182656390E+003.0000000000E+00+
*       1.2264235079E+00               0
GRID*                852               03.6139159771E+003.0000000000E+00+
*       1.4317346344E+00               0
GRID*                853               03.9932746578E+003.0000000000E+00+
*       1.8110968642E+00               0
GRID*                854               04.1985815842E+003.0000000000E+00+
*       2.3067626462E+00               0
GRID*                855               04.1985798274E+003.0000000000E+00+
*       2.8432498845E+00               0
GRID*                856               03.9932619878E+003.0000000000E+00+
*       3.3389214589E+00               0
GRID*                857               03.6139057280E+003.0000000000E+00+
*       3.7182726891E+00               0
GRID*                858               03.1182311674E+003.0000000000E+00+
*       3.9235834269E+00               0
GRID*                859               03.3761898112E+000.0000000000E+00+
*       3.8453342087E+00               0
GRID*                860               03.8222718946E+000.0000000000E+00+
*       3.5472716870E+00               0
GRID*                861               04.1203343429E+000.0000000000E+00+
*       3.1011895481E+00               0
GRID*                862               04.2249997935E+000.0000000000E+00+
*       2.5749998740E+00               0
GRID*                863               04.1203342714E+000.0000000000E+00+
*       2.0488102068E+00               0
GRID*                864               03.8222716460E+000.0000000000E+00+
*       1.6027281983E+00               0
GRID*                865               03.3761895718E+000.0000000000E+00+
*       1.3046656683E+00               0
GRID*                866               02.8499998703E+000.0000000000E+00+
*       1.2000000477E+00               0
GRID*                867               02.3238101653E+000.0000000000E+00+
*       1.3046657028E+00               0
GRID*                868               01.8777281341E+000.0000000000E+00+
*       1.6027283287E+00               0
GRID*                869               01.5796657096E+000.0000000000E+00+
*       2.0488104597E+00               0
GRID*                870               01.4750001350E+000.0000000000E+00+
*       2.5750001422E+00               0
GRID*                871               01.5796657739E+000.0000000000E+00+
*       3.1011898188E+00               0
GRID*                872               01.8777282958E+000.0000000000E+00+
*       3.5472719104E+00               0
GRID*                873               02.3238104300E+000.0000000000E+00+
*       3.8453343829E+00               0
GRID*                874               02.5817509714E+000.0000000000E+00+
*       3.9235796871E+00               0
GRID*                875               02.0860910833E+000.0000000000E+00+
*       3.7182707296E+00               0
GRID*                876               01.7067294235E+000.0000000000E+00+
*       3.3389091472E+00               0
GRID*                877               01.5014202222E+000.0000000000E+00+
*       2.8432493394E+00               0
GRID*                878               01.5014201847E+000.0000000000E+00+
*       2.3067509412E+00               0
GRID*                879               01.7067292537E+000.0000000000E+00+
*       1.8110910715E+00               0
GRID*                880               02.0860908863E+000.0000000000E+00+
*       1.4317294692E+00               0
GRID*                881               02.5817506905E+000.0000000000E+00+
*       1.2264203450E+00               0
GRID*                882               03.1182490554E+000.0000000000E+00+
*       1.2264203020E+00               0
GRID*                883               03.6139089140E+000.0000000000E+00+
*       1.4317293038E+00               0
GRID*                884               03.9932706426E+000.0000000000E+00+
*       1.8110908609E+00               0
GRID*                885               04.1985799238E+000.0000000000E+00+
*       2.3067506609E+00               0
GRID*                886               04.1985799910E+000.0000000000E+00+
*       2.8432490937E+00               0
GRID*                887               03.9932707616E+000.0000000000E+00+
*       3.3389089255E+00               0
GRID*                888               03.6139091705E+000.0000000000E+00+
*       3.7182705919E+00               0
GRID*                889               03.1182493095E+000.0000000000E+00+
*       3.9235796236E+00               0
GRID*                751               01.0000000000E+000.0000000000E+00+
*       0.0000000000E+00               0
GRID*                752               02.0000000000E+000.0000000000E+00+
*       0.0000000000E+00               0
GRID*                753               03.0000000000E+000.0000000000E+00+
*       0.0000000000E+00               0
GRID*                754               04.0000000000E+000.0000000000E+00+
*       0.0000000000E+00               0
GRID*                755               05.0000000000E+000.0000000000E+00+
*       0.0000000000E+00               0
GRID*                756               05.5000000000E+000.0000000000E+00+
*       0.0000000000E+00               0
GRID*                757               04.5000000000E+000.0000000000E+00+
*       0.0000000000E+00               0
GRID*                758               03.5000000000E+000.0000000000E+00+
*       0.0000000000E+00               0
GRID*                759               02.5000000000E+000.0000000000E+00+
*       0.0000000000E+00               0
GRID*                760               01.5000000000E+000.0000000000E+00+
*       0.0000000000E+00               0
GRID*                761               05.0000000000E-010.0000000000E+00+
*       0.0000000000E+00               0
GRID*                762               05.0000000000E+000.0000000000E+00+
*       5.0000000000E+00               0
GRID*                763               04.0000000000E+000.0000000000E+00+
*       5.0000000000E+00               0
GRID*                764               03.0000000000E+000.0000000000E+00+
*       5.0000000000E+00               0
GRID*                765               02.0000000000E+000.0000000000E+00+
*       5.0000000000E+00               0
GRID*                766               01.0000000000E+000.0000000000E+00+
*       5.0000000000E+00               0
GRID*                767               05.0000000000E-010.0000000000E+00+
*       5.0000000000E+00               0
GRID*                768               01.5000000000E+000.0000000000E+00+
*       5.0000000000E+00               0
GRID*                769               02.5000000000E+000.0000000000E+00+
*       5.0000000000E+00               0
GRID*                770               03.5000000000E+000.0000000000E+00+
*       5.0000000000E+00               0
GRID*                771               04.5000000000E+000.0000000000E+00+
*       5.0000000000E+00               0
GRID*                772               05.5000000000E+000.0000000000E+00+
*       5.0000000000E+00               0
GRID*                773               01.0000000000E+003.0000000000E+00+
*       0.0000000000E+00               0
GRID*                774               02.0000000000E+003.0000000000E+00+
*       0.0000000000E+00               0
GRID*                775               03.0000000000E+003.0000000000E+00+
*       0.0000000000E+00               0
GRID*                776               04.0000000000E+003.0000000000E+00+
*       0.0000000000E+00               0
GRID*                777               05.0000000000E+003.0000000000E+00+
*       0.0000000000E+00               0
GRID*                778               05.0000000000E-013.0000000000E+00+
*       0.0000000000E+00               0
GRID*                779               01.5000000000E+003.0000000000E+00+
*       0.0000000000E+00               0
GRID*                780               02.5000000000E+003.0000000000E+00+
*       0.0000000000E+00               0
GRID*                781               03.5000000000E+003.0000000000E+00+
*       0.0000000000E+00               0
GRID*                782               04.5000000000E+003.0000000000E+00+
*       0.0000000000E+00               0
GRID*                783               05.5000000000E+003.0000000000E+00+
*       0.0000000000E+00               0
GRID*                784               05.0000000000E+003.0000000000E+00+
*       5.0000000000E+00               0
GRID*                785               04.0000000000E+003.0000000000E+00+
*       5.0000000000E+00               0
GRID*                786               03.0000000000E+003.0000000000E+00+
*       5.0000000000E+00               0
GRID*                787               02.0000000000E+003.0000000000E+00+
*       5.0000000000E+00               0
GRID*                788               01.0000000000E+003.0000000000E+00+
*       5.0000000000E+00               0
GRID*                789               05.5000000000E+003.0000000000E+00+
*       5.0000000000E+00               0
GRID*                790               04.5000000000E+003.0000000000E+00+
*       5.0000000000E+00               0
GRID*                791               03.5000000000E+003.0000000000E+00+
*       5.0000000000E+00               0
GRID*                792               02.5000000000E+003.0000000000E+00+
*       5.0000000000E+00               0
GRID*                793               01.5000000000E+003.0000000000E+00+
*       5.0000000000E+00               0
GRID*                794               05.0000000000E-013.0000000000E+00+
*       5.0000000000E+00               0
GRID*                795               06.0000000000E+000.0000000000E+00+
*       4.0000000000E+00               0
GRID*                796               06.0000000000E+000.0000000000E+00+
*       3.0000000000E+00               0
GRID*                797               06.0000000000E+000.0000000000E+00+
*       2.0000000000E+00               0
GRID*                798               06.0000000000E+000.0000000000E+00+
*       1.0000000000E+00               0
GRID*                799               06.0000000000E+000.0000000000E+00+
*       4.5000000000E+00               0
GRID*                800               06.0000000000E+000.0000000000E+00+
*       3.5000000000E+00               0
GRID*                801               06.0000000000E+000.0000000000E+00+
*       2.5000000000E+00               0
GRID*                802               06.0000000000E+000.0000000000E+00+
*       1.5000000000E+00               0
GRID*                803               06.0000000000E+000.0000000000E+00+
*       5.0000000000E-01               0
GRID*                804               06.0000000000E+002.0000000000E+00+
*       0.0000000000E+00               0
GRID*                805               06.0000000000E+001.0000000000E+00+
*       0.0000000000E+00               0
GRID*                806               06.0000000000E+002.5000000000E+00+
*       0.0000000000E+00               0
GRID*                807               06.0000000000E+001.5000000000E+00+
*       0.0000000000E+00               0
GRID*                808               06.0000000000E+005.0000000000E-01+
*       0.0000000000E+00               0
GRID*                809               06.0000000000E+001.0000000000E+00+
*       5.0000000000E+00               0
GRID*                810               06.0000000000E+002.0000000000E+00+
*       5.0000000000E+00               0
GRID*                811               06.0000000000E+002.5000000000E+00+
*       5.0000000000E+00               0
GRID*                812               06.0000000000E+005.0000000000E-01+
*       5.0000000000E+00               0
GRID*                813               06.0000000000E+001.5000000000E+00+
*       5.0000000000E+00               0
GRID*                814               06.0000000000E+003.0000000000E+00+
*       4.0000000000E+00               0
GRID*                815               06.0000000000E+003.0000000000E+00+
*       3.0000000000E+00               0
GRID*                816               06.0000000000E+003.0000000000E+00+
*       2.0000000000E+00               0
GRID*                817               06.0000000000E+003.0000000000E+00+
*       1.0000000000E+00               0
GRID*                818               06.0000000000E+003.0000000000E+00+
*       5.0000000000E-01               0
GRID*                819               06.0000000000E+003.0000000000E+00+
*       1.5000000000E+00               0
GRID*                820               06.0000000000E+003.0000000000E+00+
*       2.5000000000E+00               0
GRID*                821               06.0000000000E+003.0000000000E+00+
*       3.5000000000E+00               0
GRID*                822               06.0000000000E+003.0000000000E+00+
*       4.5000000000E+00               0
GRID*                516               01.4909285529E+000.0000000000E+00+
*       3.9340618284E+00               0
GRID*                517               02.1144621806E+000.0000000000E+00+
*       4.3506992561E+00               0
GRID*                518               02.8499978402E+000.0000000000E+00+
*       4.4970074699E+00               0
GRID*                519               03.5855079632E+000.0000000000E+00+
*       4.3507106350E+00               0
GRID*                520               04.2090526559E+000.0000000000E+00+
*       3.9340717035E+00               0
GRID*                521               05.1354897748E+000.0000000000E+00+
*       4.1687706068E+00               0
GRID*                522               05.2522245774E+000.0000000000E+00+
*       3.5232953425E+00               0
GRID*                523               05.3375442014E+000.0000000000E+00+
*       2.7299943506E+00               0
GRID*                524               05.2633355430E+000.0000000000E+00+
*       1.8561745701E+00               0
GRID*                525               04.8576571959E+000.0000000000E+00+
*       8.9568463863E-01               0
GRID*                526               03.7966069476E+000.0000000000E+00+
*       4.4639145937E-01               0
GRID*                527               02.9146623932E+000.0000000000E+00+
*       3.4020190047E-01               0
GRID*                528               02.0365257688E+000.0000000000E+00+
*       4.2323195390E-01               0
GRID*                529               01.0107485427E+000.0000000000E+00+
*       8.7937905553E-01               0
GRID*                530               05.6003616424E-010.0000000000E+00+
*       1.8182044944E+00               0
GRID*                531               01.0742866575E+000.0000000000E+00+
*       3.3105004750E+00               0
GRID*                532               04.2261254865E-010.0000000000E+00+
*       2.4914235053E+00               0
GRID*                533               09.2799009739E-010.0000000000E+00+
*       2.5749892416E+00               0
GRID*                534               01.0743053227E+000.0000000000E+00+
*       1.8394627881E+00               0
GRID*                535               01.4909433252E+000.0000000000E+00+
*       1.2159245377E+00               0
GRID*                536               02.1144873556E+000.0000000000E+00+
*       7.9929510035E-01               0
GRID*                537               02.8500159228E+000.0000000000E+00+
*       6.5299012329E-01               0
GRID*                538               03.5855250016E+000.0000000000E+00+
*       7.9929696586E-01               0
GRID*                539               04.2090806350E+000.0000000000E+00+
*       1.2159473860E+00               0
GRID*                540               04.6257093485E+000.0000000000E+00+
*       1.8394868941E+00               0
GRID*                541               04.7720072807E+000.0000000000E+00+
*       2.5750242327E+00               0
GRID*                542               04.6257008743E+000.0000000000E+00+
*       3.3105326334E+00               0
GRID*                543               02.2191363061E+000.0000000000E+00+
*       4.0980168173E+00               0
GRID*                544               02.8499989916E+000.0000000000E+00+
*       4.2235037588E+00               0
GRID*                545               02.4822300104E+000.0000000000E+00+
*       4.4238533630E+00               0
GRID*                546               01.6843284246E+000.0000000000E+00+
*       3.7406668690E+00               0
GRID*                547               01.8026953667E+000.0000000000E+00+
*       4.1423805422E+00               0
GRID*                548               01.3269762141E+000.0000000000E+00+
*       3.2058451475E+00               0
GRID*                549               01.2826076052E+000.0000000000E+00+
*       3.6222811517E+00               0
GRID*                550               01.2014951190E+000.0000000000E+00+
*       2.5749946919E+00               0
GRID*                551               01.0011383775E+000.0000000000E+00+
*       2.9427448583E+00               0
GRID*                552               01.3269855151E+000.0000000000E+00+
*       1.9441366234E+00               0
GRID*                553               01.0011477101E+000.0000000000E+00+
*       2.2072260149E+00               0
GRID*                554               01.6843357312E+000.0000000000E+00+
*       1.4093264347E+00               0
GRID*                555               01.2826243240E+000.0000000000E+00+
*       1.5276936629E+00               0
GRID*                556               02.2191487614E+000.0000000000E+00+
*       1.0519804038E+00               0
GRID*                557               01.8027153404E+000.0000000000E+00+
*       1.0076098190E+00               0
GRID*                558               02.8500078965E+000.0000000000E+00+
*       9.2649508549E-01               0
GRID*                559               02.4822516392E+000.0000000000E+00+
*       7.2614261182E-01               0
GRID*                560               03.4808572860E+000.0000000000E+00+
*       1.0519813188E+00               0
GRID*                561               03.2177704622E+000.0000000000E+00+
*       7.2614354457E-01               0
GRID*                562               04.0156761390E+000.0000000000E+00+
*       1.4093377936E+00               0
GRID*                563               03.8973028183E+000.0000000000E+00+
*       1.0076221759E+00               0
GRID*                564               04.3730218173E+000.0000000000E+00+
*       1.9441485474E+00               0
GRID*                565               04.4173949917E+000.0000000000E+00+
*       1.5277171401E+00               0
GRID*                566               04.4985035194E+000.0000000000E+00+
*       2.5750120534E+00               0
GRID*                567               04.6988583146E+000.0000000000E+00+
*       2.2072555634E+00               0
GRID*                568               04.3730176179E+000.0000000000E+00+
*       3.2058610948E+00               0
GRID*                569               04.6988540775E+000.0000000000E+00+
*       2.9427784331E+00               0
GRID*                570               04.0156622796E+000.0000000000E+00+
*       3.7406716995E+00               0
GRID*                571               04.4173767651E+000.0000000000E+00+
*       3.6223021684E+00               0
GRID*                572               03.4808488864E+000.0000000000E+00+
*       4.0980224202E+00               0
GRID*                573               03.8972803095E+000.0000000000E+00+
*       4.1423911693E+00               0
GRID*                574               03.2177529017E+000.0000000000E+00+
*       4.4238590525E+00               0
GRID*                575               02.0572310903E+000.0000000000E+00+
*       4.6753496280E+00               0
GRID*                576               02.9249989201E+000.0000000000E+00+
*       4.7485037349E+00               0
GRID*                577               03.7927539816E+000.0000000000E+00+
*       4.6753553175E+00               0
GRID*                578               05.6261122887E+000.0000000000E+00+
*       3.7616476712E+00               0
GRID*                579               05.5677448874E+000.0000000000E+00+
*       4.5843853034E+00               0
GRID*                580               05.1938571761E+000.0000000000E+00+
*       3.8460329747E+00               0
GRID*                581               04.9389627258E+000.0000000000E+00+
*       3.4169139879E+00               0
GRID*                582               04.6722712154E+000.0000000000E+00+
*       4.0514211552E+00               0
GRID*                583               05.6316677715E+000.0000000000E+00+
*       1.9280872851E+00               0
GRID*                584               05.0604963694E+000.0000000000E+00+
*       1.3759296044E+00               0
GRID*                585               05.4288285979E+000.0000000000E+00+
*       9.4784231931E-01               0
GRID*                586               04.9288285979E+000.0000000000E+00+
*       4.4784231931E-01               0
GRID*                587               04.9445224457E+000.0000000000E+00+
*       1.8478307321E+00               0
GRID*                588               04.5333689154E+000.0000000000E+00+
*       1.0558160123E+00               0
GRID*                589               03.8983034738E+000.0000000000E+00+
*       2.2319572968E-01               0
GRID*                590               04.3271320717E+000.0000000000E+00+
*       6.7103804900E-01               0
GRID*                591               03.6910659746E+000.0000000000E+00+
*       6.2284421261E-01               0
GRID*                592               05.0547757410E+000.0000000000E+00+
*       2.6525092916E+00               0
GRID*                593               05.2948843894E+000.0000000000E+00+
*       3.1266448465E+00               0
GRID*                594               05.6687721007E+000.0000000000E+00+
*       2.8649971753E+00               0
GRID*                595               05.3004398722E+000.0000000000E+00+
*       2.2930844603E+00               0
GRID*                596               01.2454642764E+000.0000000000E+00+
*       4.4670309142E+00               0
GRID*                597               05.3714332877E-010.0000000000E+00+
*       3.1552502375E+00               0
GRID*                598               07.4546427644E-010.0000000000E+00+
*       3.9670309142E+00               0
GRID*                599               04.9132435644E-010.0000000000E+00+
*       2.1548139998E+00               0
GRID*                600               08.1717074348E-010.0000000000E+00+
*       1.8288336413E+00               0
GRID*                601               06.7530132302E-010.0000000000E+00+
*       2.5332063735E+00               0
GRID*                602               02.1130627433E-010.0000000000E+00+
*       2.7457117526E+00               0
GRID*                603               02.8001808212E-010.0000000000E+00+
*       1.9091022472E+00               0
GRID*                604               02.8823391580E+000.0000000000E+00+
*       4.9659601188E-01               0
GRID*                605               03.3556346704E+000.0000000000E+00+
*       3.9329667992E-01               0
GRID*                606               02.9573311966E+000.0000000000E+00+
*       1.7010095023E-01               0
GRID*                607               02.0755065622E+000.0000000000E+00+
*       6.1126352712E-01               0
GRID*                608               02.4755940810E+000.0000000000E+00+
*       3.8171692718E-01               0
GRID*                609               02.0182628844E+000.0000000000E+00+
*       2.1161597695E-01               0
GRID*                610               01.2508459340E+000.0000000000E+00+
*       1.0476517966E+00               0
GRID*                611               01.5236371558E+000.0000000000E+00+
*       6.5130550471E-01               0
GRID*                612               01.0053742714E+000.0000000000E+00+
*       4.3968952776E-01               0
GRID*                613               05.0537427136E-010.0000000000E+00+
*       9.3968952776E-01               0
GRID*                614               07.8539235348E-010.0000000000E+00+
*       1.3487917749E+00               0
GRID*                615               04.6045263280E+000.0000000000E+00+
*       4.4670358517E+00               0
GRID*                416               02.8499978830E+003.0000000000E+00+
*       4.4970075144E+00               0
GRID*                417               02.1144622234E+003.0000000000E+00+
*       4.3506993006E+00               0
GRID*                418               01.4909285957E+003.0000000000E+00+
*       3.9340618729E+00               0
GRID*                419               01.0742867003E+003.0000000000E+00+
*       3.3105005195E+00               0
GRID*                420               09.2799014019E-013.0000000000E+00+
*       2.5749892862E+00               0
GRID*                421               01.0743053655E+003.0000000000E+00+
*       1.8394628327E+00               0
GRID*                422               01.4909433680E+003.0000000000E+00+
*       1.2159245822E+00               0
GRID*                423               02.1144873984E+003.0000000000E+00+
*       7.9929514487E-01               0
GRID*                424               02.8500159656E+003.0000000000E+00+
*       6.5299016781E-01               0
GRID*                425               03.5855250444E+003.0000000000E+00+
*       7.9929701038E-01               0
GRID*                426               04.2090806778E+003.0000000000E+00+
*       1.2159474305E+00               0
GRID*                427               04.6257093912E+003.0000000000E+00+
*       1.8394869386E+00               0
GRID*                428               04.7720073235E+003.0000000000E+00+
*       2.5750242772E+00               0
GRID*                429               04.6257009171E+003.0000000000E+00+
*       3.3105326779E+00               0
GRID*                430               04.2090526987E+003.0000000000E+00+
*       3.9340717480E+00               0
GRID*                431               03.5855080059E+003.0000000000E+00+
*       4.3507106795E+00               0
GRID*                432               03.7966069904E+003.0000000000E+00+
*       4.4639150389E-01               0
GRID*                433               05.2522246201E+003.0000000000E+00+
*       3.5232953870E+00               0
GRID*                434               05.1354898176E+003.0000000000E+00+
*       4.1687706513E+00               0
GRID*                435               05.2633355858E+003.0000000000E+00+
*       1.8561746146E+00               0
GRID*                436               04.8576572387E+003.0000000000E+00+
*       8.9568468315E-01               0
GRID*                437               05.3375442441E+003.0000000000E+00+
*       2.7299943951E+00               0
GRID*                438               05.6003620703E-013.0000000000E+00+
*       1.8182045389E+00               0
GRID*                439               04.2261259145E-013.0000000000E+00+
*       2.4914235498E+00               0
GRID*                440               02.0365258116E+003.0000000000E+00+
*       4.2323199842E-01               0
GRID*                441               02.9146624360E+003.0000000000E+00+
*       3.4020194499E-01               0
GRID*                442               01.0107485855E+003.0000000000E+00+
*       8.7937910005E-01               0
GRID*                443               02.8499990130E+003.0000000000E+00+
*       4.2235037810E+00               0
GRID*                444               02.2191296632E+003.0000000000E+00+
*       4.0980139813E+00               0
GRID*                445               02.4822300532E+003.0000000000E+00+
*       4.4238534075E+00               0
GRID*                446               01.6843273557E+003.0000000000E+00+
*       3.7406657174E+00               0
GRID*                447               01.8026954095E+003.0000000000E+00+
*       4.1423805867E+00               0
GRID*                448               01.3269728173E+003.0000000000E+00+
*       3.2058369974E+00               0
GRID*                449               01.2826076480E+003.0000000000E+00+
*       3.6222811962E+00               0
GRID*                450               01.2014953261E+003.0000000000E+00+
*       2.5749915005E+00               0
GRID*                451               01.0011384203E+003.0000000000E+00+
*       2.9427449028E+00               0
GRID*                452               01.3269882612E+003.0000000000E+00+
*       1.9441299338E+00               0
GRID*                453               01.0011477529E+003.0000000000E+00+
*       2.2072260594E+00               0
GRID*                454               01.6843393485E+003.0000000000E+00+
*       1.4093232265E+00               0
GRID*                455               01.2826243668E+003.0000000000E+00+
*       1.5276937075E+00               0
GRID*                456               02.2191509984E+003.0000000000E+00+
*       1.0519794939E+00               0
GRID*                457               01.8027153832E+003.0000000000E+00+
*       1.0076098636E+00               0
GRID*                458               02.8500143575E+003.0000000000E+00+
*       9.2649535095E-01               0
GRID*                459               02.4822516820E+003.0000000000E+00+
*       7.2614265634E-01               0
GRID*                460               03.4808580319E+003.0000000000E+00+
*       1.0519816654E+00               0
GRID*                461               03.2177705050E+003.0000000000E+00+
*       7.2614358909E-01               0
GRID*                462               04.0156818466E+003.0000000000E+00+
*       1.4093435089E+00               0
GRID*                463               03.8973028611E+003.0000000000E+00+
*       1.0076222205E+00               0
GRID*                464               04.3730226202E+003.0000000000E+00+
*       1.9441508435E+00               0
GRID*                465               04.4173950345E+003.0000000000E+00+
*       1.5277171846E+00               0
GRID*                466               04.4985036140E+003.0000000000E+00+
*       2.5750217341E+00               0
GRID*                467               04.6988583574E+003.0000000000E+00+
*       2.2072556079E+00               0
GRID*                468               04.3730159592E+003.0000000000E+00+
*       3.2058647712E+00               0
GRID*                469               04.6988541203E+003.0000000000E+00+
*       2.9427784776E+00               0
GRID*                470               04.0156588957E+003.0000000000E+00+
*       3.7406751460E+00               0
GRID*                471               04.4173768079E+003.0000000000E+00+
*       3.6223022130E+00               0
GRID*                472               03.4808435781E+003.0000000000E+00+
*       4.0980243211E+00               0
GRID*                473               03.8972803523E+003.0000000000E+00+
*       4.1423912138E+00               0
GRID*                474               03.2177529445E+003.0000000000E+00+
*       4.4238590970E+00               0
GRID*                475               02.0572311117E+003.0000000000E+00+
*       4.6753496503E+00               0
GRID*                476               02.9249989415E+003.0000000000E+00+
*       4.7485037572E+00               0
GRID*                477               03.7927540030E+003.0000000000E+00+
*       4.6753553398E+00               0
GRID*                478               05.5677449088E+003.0000000000E+00+
*       4.5843853257E+00               0
GRID*                479               05.6261123101E+003.0000000000E+00+
*       3.7616476935E+00               0
GRID*                480               05.1938572189E+003.0000000000E+00+
*       3.8460330192E+00               0
GRID*                481               04.9389627686E+003.0000000000E+00+
*       3.4169140325E+00               0
GRID*                482               04.6722712582E+003.0000000000E+00+
*       4.0514211997E+00               0
GRID*                483               05.0604964122E+003.0000000000E+00+
*       1.3759296489E+00               0
GRID*                484               05.6316677929E+003.0000000000E+00+
*       1.9280873073E+00               0
GRID*                485               05.4288286193E+003.0000000000E+00+
*       9.4784234157E-01               0
GRID*                486               04.9288286193E+003.0000000000E+00+
*       4.4784234157E-01               0
GRID*                487               04.9445224885E+003.0000000000E+00+
*       1.8478307766E+00               0
GRID*                488               04.5333689582E+003.0000000000E+00+
*       1.0558160568E+00               0
GRID*                489               03.8983034952E+003.0000000000E+00+
*       2.2319575194E-01               0
GRID*                490               04.3271321145E+003.0000000000E+00+
*       6.7103809352E-01               0
GRID*                491               03.6910660174E+003.0000000000E+00+
*       6.2284425713E-01               0
GRID*                492               05.0547757838E+003.0000000000E+00+
*       2.6525093362E+00               0
GRID*                493               05.2948844321E+003.0000000000E+00+
*       3.1266448911E+00               0
GRID*                494               05.6687721221E+003.0000000000E+00+
*       2.8649971975E+00               0
GRID*                495               05.3004399150E+003.0000000000E+00+
*       2.2930845049E+00               0
GRID*                496               01.2454642978E+003.0000000000E+00+
*       4.4670309364E+00               0
GRID*                497               05.3714335017E-013.0000000000E+00+
*       3.1552502597E+00               0
GRID*                498               07.4546429784E-013.0000000000E+00+
*       3.9670309364E+00               0
GRID*                499               08.1717078627E-013.0000000000E+00+
*       1.8288336858E+00               0
GRID*                500               04.9132439924E-013.0000000000E+00+
*       2.1548140443E+00               0
GRID*                501               06.7530136582E-013.0000000000E+00+
*       2.5332064180E+00               0
GRID*                502               02.8001810352E-013.0000000000E+00+
*       1.9091022694E+00               0
GRID*                503               02.1130629572E-013.0000000000E+00+
*       2.7457117749E+00               0
GRID*                504               02.8823392008E+003.0000000000E+00+
*       4.9659605640E-01               0
GRID*                505               03.3556347132E+003.0000000000E+00+
*       3.9329672444E-01               0
GRID*                506               02.9573312180E+003.0000000000E+00+
*       1.7010097249E-01               0
GRID*                507               02.0755066050E+003.0000000000E+00+
*       6.1126357164E-01               0
GRID*                508               02.4755941238E+003.0000000000E+00+
*       3.8171697170E-01               0
GRID*                509               02.0182629058E+003.0000000000E+00+
*       2.1161599921E-01               0
GRID*                510               01.2508459768E+003.0000000000E+00+
*       1.0476518411E+00               0
GRID*                511               01.5236371986E+003.0000000000E+00+
*       6.5130554923E-01               0
GRID*                512               01.0053742928E+003.0000000000E+00+
*       4.3968955002E-01               0
GRID*                513               05.0537429276E-013.0000000000E+00+
*       9.3968955002E-01               0
GRID*                514               07.8539239627E-013.0000000000E+00+
*       1.3487918195E+00               0
GRID*                515               04.6045263494E+003.0000000000E+00+
*       4.4670358740E+00               0
GRID*                616               02.3238000877E+001.9999999620E+00+
*       3.8453300298E+00               0
GRID*                617               01.8777295071E+001.9999999828E+00+
*       3.5472730778E+00               0
GRID*                618               01.5796602180E+002.0000000041E+00+
*       3.1011766884E+00               0
GRID*                619               01.4750002119E+002.0000000896E+00+
*       2.5750044294E+00               0
GRID*                620               01.5796700194E+001.9999999392E+00+
*       2.0487997929E+00               0
GRID*                621               01.8777289803E+002.0000000188E+00+
*       1.6027278864E+00               0
GRID*                622               02.3238137160E+001.9999999798E+00+
*       1.3046642096E+00               0
GRID*                623               02.8500078196E+001.9999999579E+00+
*       1.2000003378E+00               0
GRID*                624               03.3761889154E+001.9999999867E+00+
*       1.3046654241E+00               0
GRID*                625               03.8222814969E+001.9999999910E+00+
*       1.6027379148E+00               0
GRID*                626               04.1203324515E+002.0000000733E+00+
*       2.0488058202E+00               0
GRID*                627               04.2249998885E+001.9999999603E+00+
*       2.5750127549E+00               0
GRID*                628               04.1203350504E+002.0000000635E+00+
*       3.1011875062E+00               0
GRID*                629               03.8222664508E+001.9999999588E+00+
*       3.5472771837E+00               0
GRID*                630               03.3761855953E+001.9999999820E+00+
*       3.8453355709E+00               0
GRID*                631               02.3238032843E+009.9999999322E-01+
*       3.8453314663E+00               0
GRID*                632               01.8777285613E+009.9999996637E-01+
*       3.5472721399E+00               0
GRID*                633               01.5796631008E+009.9999993429E-01+
*       3.1011835092E+00               0
GRID*                634               01.4750001352E+009.9999991448E-01+
*       2.5750008599E+00               0
GRID*                635               01.5796679691E+009.9999993165E-01+
*       2.0488048703E+00               0
GRID*                636               01.8777253349E+001.0000000447E+00+
*       1.6027311891E+00               0
GRID*                637               02.3238129467E+009.9999997294E-01+
*       1.3046645286E+00               0
GRID*                638               02.8500036036E+009.9999999496E-01+
*       1.2000001299E+00               0
GRID*                639               03.3761891709E+009.9999999851E-01+
*       1.3046655137E+00               0
GRID*                640               03.8222770840E+009.9999996609E-01+
*       1.6027335299E+00               0
GRID*                641               04.1203341726E+009.9999992682E-01+
*       2.0488099913E+00               0
GRID*                642               04.2249998405E+009.9999993055E-01+
*       2.5750063144E+00               0
GRID*                643               04.1203354415E+009.9999996571E-01+
*       3.1011868971E+00               0
GRID*                644               03.8222681971E+009.9999994490E-01+
*       3.5472754288E+00               0
GRID*                645               03.3761905257E+001.0000000297E+00+
*       3.8453337971E+00               0
GRID*                646               02.3238016245E+001.4999999848E+00+
*       3.8453307430E+00               0
GRID*                647               02.0860863081E+001.0000020561E+00+
*       3.7182675921E+00               0
GRID*                648               01.8777286156E+001.4999999534E+00+
*       3.5472721732E+00               0
GRID*                649               02.0860828186E+002.0000021159E+00+
*       3.7182652647E+00               0
GRID*                650               01.7067310027E+001.0000024366E+00+
*       3.3389113549E+00               0
GRID*                651               01.5796617008E+001.4999999657E+00+
*       3.1011802117E+00               0
GRID*                652               01.7067282553E+002.0000023099E+00+
*       3.3389067649E+00               0
GRID*                653               01.5014199353E+001.0000020197E+00+
*       2.8432478755E+00               0
GRID*                654               01.4750001352E+001.5000000423E+00+
*       2.5750049779E+00               0
GRID*                655               01.5014198410E+002.0000021185E+00+
*       2.8432474185E+00               0
GRID*                656               01.5014213780E+001.0000024123E+00+
*       2.3067451442E+00               0
GRID*                657               01.5796690361E+001.4999999319E+00+
*       2.0488022184E+00               0
GRID*                658               01.5014222912E+002.0000022849E+00+
*       2.3067415240E+00               0
GRID*                659               01.7067290329E+001.0000020461E+00+
*       1.8110914320E+00               0
GRID*                660               01.8777264497E+001.5000000723E+00+
*       1.6027302259E+00               0
GRID*                661               01.7067287607E+002.0000021204E+00+
*       1.8110918657E+00               0
GRID*                662               02.0860968112E+001.0000022851E+00+
*       1.4317254425E+00               0
GRID*                663               02.3238132619E+001.4999999777E+00+
*       1.3046643987E+00               0
GRID*                664               02.0861031270E+002.0000022980E+00+
*       1.4317211760E+00               0
GRID*                665               02.5817503447E+001.0000021013E+00+
*       1.2264204276E+00               0
GRID*                666               02.8500055341E+001.4999999917E+00+
*       1.2000002219E+00               0
GRID*                667               02.5817459878E+002.0000022982E+00+
*       1.2264213019E+00               0
GRID*                668               03.1182551968E+001.0000021145E+00+
*       1.2264214777E+00               0
GRID*                669               03.3761890946E+001.4999999906E+00+
*       1.3046654919E+00               0
GRID*                670               03.1182611325E+002.0000021547E+00+
*       1.2264226181E+00               0
GRID*                671               03.6139052387E+001.0000023629E+00+
*       1.4317268602E+00               0
GRID*                672               03.8222802558E+001.5000000185E+00+
*       1.6027366554E+00               0
GRID*                673               03.6139081790E+002.0000023247E+00+
*       1.4317291292E+00               0
GRID*                674               03.9932731960E+001.0000020153E+00+
*       1.8110946644E+00               0
GRID*                675               04.1203338079E+001.4999999449E+00+
*       2.0488091135E+00               0
GRID*                676               03.9932738311E+002.0000021144E+00+
*       1.8110956475E+00               0
GRID*                677               04.1985800470E+001.0000024365E+00+
*       2.3067520768E+00               0
GRID*                678               04.2249998683E+001.4999999415E+00+
*       2.5750095347E+00               0
GRID*                679               04.1985806741E+002.0000022951E+00+
*       2.3067568331E+00               0
GRID*                680               04.1985800449E+001.0000020354E+00+
*       2.8432487977E+00               0
GRID*                681               04.1203362379E+001.5000000914E+00+
*       3.1011849027E+00               0
GRID*                682               04.1985800773E+002.0000021287E+00+
*       2.8432485896E+00               0
GRID*                683               03.9932661692E+001.0000023878E+00+
*       3.3389158277E+00               0
GRID*                684               03.8222667985E+001.4999999390E+00+
*       3.5472768360E+00               0
GRID*                685               03.9932636384E+002.0000022829E+00+
*       3.3389193542E+00               0
GRID*                686               03.6139093683E+001.0000020647E+00+
*       3.7182704223E+00               0
GRID*                687               03.3761884664E+001.5000000295E+00+
*       3.8453345274E+00               0
GRID*                688               03.6139119936E+002.0000021975E+00+
*       3.7182686922E+00               0
GRID*                689               02.5817543006E+002.0000023273E+00+
*       3.9235802081E+00               0
GRID*                690               02.3237985779E+002.4999999127E+00+
*       3.8453293001E+00               0
GRID*                691               02.5817524200E+001.0000021917E+00+
*       3.9235799868E+00               0
GRID*                692               02.3238064808E+004.9999997104E-01+
*       3.8453327769E+00               0
GRID*                693               01.8777285938E+004.9999998352E-01+
*       3.5472721970E+00               0
GRID*                694               01.5796644388E+004.9999991172E-01+
*       3.1011866477E+00               0
GRID*                695               01.4750001352E+004.9999992253E-01+
*       2.5750006085E+00               0
GRID*                696               01.5796668402E+004.9999994021E-01+
*       2.0488076814E+00               0
GRID*                697               01.8777271528E+004.9999992348E-01+
*       1.6027292853E+00               0
GRID*                698               02.3238121674E+004.9999997702E-01+
*       1.3046648525E+00               0
GRID*                699               02.8500018236E+004.9999998886E-01+
*       1.2000000696E+00               0
GRID*                700               03.3761892970E+005.0000000450E-01+
*       1.3046655578E+00               0
GRID*                701               03.8222743079E+004.9999992520E-01+
*       1.6027308186E+00               0
GRID*                702               04.1203341022E+004.9999994904E-01+
*       2.0488098067E+00               0
GRID*                703               04.2249998102E+004.9999992677E-01+
*       2.5750030941E+00               0
GRID*                704               04.1203345991E+004.9999990053E-01+
*       3.1011889309E+00               0
GRID*                705               03.8222699949E+004.9999996230E-01+
*       3.5472736069E+00               0
GRID*                706               03.3761917102E+004.9999999625E-01+
*       3.8453334013E+00               0
GRID*                707               03.1182428221E+001.0000021924E+00+
*       3.9235809909E+00               0
GRID*                708               03.1182361344E+002.0000022254E+00+
*       3.9235824188E+00               0
GRID*                709               03.3761821932E+002.4999998923E+00+
*       3.8453368343E+00               0
GRID*                710               03.8222657616E+002.4999999702E+00+
*       3.5472778729E+00               0
GRID*                711               04.1203329205E+002.4999999375E+00+
*       3.1011922763E+00               0
GRID*                712               04.2249999005E+002.4999999819E+00+
*       2.5750159748E+00               0
GRID*                713               04.1203336665E+002.5000000128E+00+
*       2.0488091123E+00               0
GRID*                714               03.8222823259E+002.4999999481E+00+
*       1.6027388398E+00               0
GRID*                715               03.3761881496E+002.5000000054E+00+
*       1.3046650941E+00               0
GRID*                716               02.8500103742E+002.4999998910E+00+
*       1.2000004599E+00               0
GRID*                717               02.3238141845E+002.4999999815E+00+
*       1.3046640145E+00               0
GRID*                718               01.8777323427E+002.4999999049E+00+
*       1.6027247242E+00               0
GRID*                719               01.5796706419E+002.4999999595E+00+
*       2.0487982697E+00               0
GRID*                720               01.4750003865E+002.4999999728E+00+
*       2.5749993742E+00               0
GRID*                721               01.5796591857E+002.5000000004E+00+
*       3.1011741960E+00               0
GRID*                722               01.8777301286E+002.5000000373E+00+
*       3.5472737397E+00               0
GRID*                349               05.0000000000E+002.0000000000E+00+
*       5.0000000000E+00               0
GRID*                350               05.0000000000E+001.0000000000E+00+
*       5.0000000000E+00               0
GRID*                351               04.0000000000E+002.0000000000E+00+
*       5.0000000000E+00               0
GRID*                352               04.0000000000E+001.0000000000E+00+
*       5.0000000000E+00               0
GRID*                353               03.0000000000E+002.0000000000E+00+
*       5.0000000000E+00               0
GRID*                354               03.0000000000E+001.0000000000E+00+
*       5.0000000000E+00               0
GRID*                355               02.0000000000E+002.0000000000E+00+
*       5.0000000000E+00               0
GRID*                356               02.0000000000E+001.0000000000E+00+
*       5.0000000000E+00               0
GRID*                357               01.0000000000E+002.0000000000E+00+
*       5.0000000000E+00               0
GRID*                358               01.0000000000E+001.0000000000E+00+
*       5.0000000000E+00               0
GRID*                359               04.5000000000E+002.0000000000E+00+
*       5.0000000000E+00               0
GRID*                360               04.0000000000E+001.5000000000E+00+
*       5.0000000000E+00               0
GRID*                361               04.5000000000E+001.0000000000E+00+
*       5.0000000000E+00               0
GRID*                362               05.0000000000E+001.5000000000E+00+
*       5.0000000000E+00               0
GRID*                363               03.5000000000E+002.0000000000E+00+
*       5.0000000000E+00               0
GRID*                364               03.0000000000E+001.5000000000E+00+
*       5.0000000000E+00               0
GRID*                365               03.5000000000E+001.0000000000E+00+
*       5.0000000000E+00               0
GRID*                366               02.5000000000E+002.0000000000E+00+
*       5.0000000000E+00               0
GRID*                367               02.0000000000E+001.5000000000E+00+
*       5.0000000000E+00               0
GRID*                368               02.5000000000E+001.0000000000E+00+
*       5.0000000000E+00               0
GRID*                369               01.5000000000E+002.0000000000E+00+
*       5.0000000000E+00               0
GRID*                370               01.0000000000E+001.5000000000E+00+
*       5.0000000000E+00               0
GRID*                371               01.5000000000E+001.0000000000E+00+
*       5.0000000000E+00               0
GRID*                372               05.0000000000E+002.5000000000E+00+
*       5.0000000000E+00               0
GRID*                373               05.5000000000E+002.0000000000E+00+
*       5.0000000000E+00               0
GRID*                374               04.0000000000E+002.5000000000E+00+
*       5.0000000000E+00               0
GRID*                375               03.0000000000E+002.5000000000E+00+
*       5.0000000000E+00               0
GRID*                376               02.0000000000E+002.5000000000E+00+
*       5.0000000000E+00               0
GRID*                377               01.0000000000E+002.5000000000E+00+
*       5.0000000000E+00               0
GRID*                378               05.0000000000E-012.0000000000E+00+
*       5.0000000000E+00               0
GRID*                379               05.0000000000E-011.0000000000E+00+
*       5.0000000000E+00               0
GRID*                380               01.0000000000E+005.0000000000E-01+
*       5.0000000000E+00               0
GRID*                381               02.0000000000E+005.0000000000E-01+
*       5.0000000000E+00               0
GRID*                382               03.0000000000E+005.0000000000E-01+
*       5.0000000000E+00               0
GRID*                383               04.0000000000E+005.0000000000E-01+
*       5.0000000000E+00               0
GRID*                384               05.0000000000E+005.0000000000E-01+
*       5.0000000000E+00               0
GRID*                385               05.5000000000E+001.0000000000E+00+
*       5.0000000000E+00               0
GRID*                312               01.0000000000E+002.0000000000E+00+
*       0.0000000000E+00               0
GRID*                313               01.0000000000E+001.0000000000E+00+
*       0.0000000000E+00               0
GRID*                314               02.0000000000E+002.0000000000E+00+
*       0.0000000000E+00               0
GRID*                315               02.0000000000E+001.0000000000E+00+
*       0.0000000000E+00               0
GRID*                316               03.0000000000E+002.0000000000E+00+
*       0.0000000000E+00               0
GRID*                317               03.0000000000E+001.0000000000E+00+
*       0.0000000000E+00               0
GRID*                318               04.0000000000E+002.0000000000E+00+
*       0.0000000000E+00               0
GRID*                319               04.0000000000E+001.0000000000E+00+
*       0.0000000000E+00               0
GRID*                320               05.0000000000E+002.0000000000E+00+
*       0.0000000000E+00               0
GRID*                321               05.0000000000E+001.0000000000E+00+
*       0.0000000000E+00               0
GRID*                322               01.5000000000E+002.0000000000E+00+
*       0.0000000000E+00               0
GRID*                323               02.0000000000E+001.5000000000E+00+
*       0.0000000000E+00               0
GRID*                324               01.5000000000E+001.0000000000E+00+
*       0.0000000000E+00               0
GRID*                325               01.0000000000E+001.5000000000E+00+
*       0.0000000000E+00               0
GRID*                326               02.5000000000E+002.0000000000E+00+
*       0.0000000000E+00               0
GRID*                327               03.0000000000E+001.5000000000E+00+
*       0.0000000000E+00               0
GRID*                328               02.5000000000E+001.0000000000E+00+
*       0.0000000000E+00               0
GRID*                329               03.5000000000E+002.0000000000E+00+
*       0.0000000000E+00               0
GRID*                330               04.0000000000E+001.5000000000E+00+
*       0.0000000000E+00               0
GRID*                331               03.5000000000E+001.0000000000E+00+
*       0.0000000000E+00               0
GRID*                332               04.5000000000E+002.0000000000E+00+
*       0.0000000000E+00               0
GRID*                333               05.0000000000E+001.5000000000E+00+
*       0.0000000000E+00               0
GRID*                334               04.5000000000E+001.0000000000E+00+
*       0.0000000000E+00               0
GRID*                335               01.0000000000E+002.5000000000E+00+
*       0.0000000000E+00               0
GRID*                336               05.0000000000E-012.0000000000E+00+
*       0.0000000000E+00               0
GRID*                337               02.0000000000E+002.5000000000E+00+
*       0.0000000000E+00               0
GRID*                338               03.0000000000E+002.5000000000E+00+
*       0.0000000000E+00               0
GRID*                339               04.0000000000E+002.5000000000E+00+
*       0.0000000000E+00               0
GRID*                340               05.0000000000E+002.5000000000E+00+
*       0.0000000000E+00               0
GRID*                341               05.5000000000E+002.0000000000E+00+
*       0.0000000000E+00               0
GRID*                342               05.5000000000E+001.0000000000E+00+
*       0.0000000000E+00               0
GRID*                343               05.0000000000E+005.0000000000E-01+
*       0.0000000000E+00               0
GRID*                344               04.0000000000E+005.0000000000E-01+
*       0.0000000000E+00               0
GRID*                345               03.0000000000E+005.0000000000E-01+
*       0.0000000000E+00               0
GRID*                346               02.0000000000E+005.0000000000E-01+
*       0.0000000000E+00               0
GRID*                347               01.0000000000E+005.0000000000E-01+
*       0.0000000000E+00               0
GRID*                348               05.0000000000E-011.0000000000E+00+
*       0.0000000000E+00               0
GRID*                386               06.0000000000E+002.0000000000E+00+
*       1.0000000000E+00               0
GRID*                387               06.0000000000E+001.0000000000E+00+
*       1.0000000000E+00               0
GRID*                388               06.0000000000E+002.0000000000E+00+
*       2.0000000000E+00               0
GRID*                389               06.0000000000E+001.0000000000E+00+
*       2.0000000000E+00               0
GRID*                390               06.0000000000E+002.0000000000E+00+
*       3.0000000000E+00               0
GRID*                391               06.0000000000E+001.0000000000E+00+
*       3.0000000000E+00               0
GRID*                392               06.0000000000E+002.0000000000E+00+
*       4.0000000000E+00               0
GRID*                393               06.0000000000E+001.0000000000E+00+
*       4.0000000000E+00               0
GRID*                394               06.0000000000E+002.0000000000E+00+
*       1.5000000000E+00               0
GRID*                395               06.0000000000E+001.5000000000E+00+
*       2.0000000000E+00               0
GRID*                396               06.0000000000E+001.0000000000E+00+
*       1.5000000000E+00               0
GRID*                397               06.0000000000E+001.5000000000E+00+
*       1.0000000000E+00               0
GRID*                398               06.0000000000E+002.0000000000E+00+
*       2.5000000000E+00               0
GRID*                399               06.0000000000E+001.5000000000E+00+
*       3.0000000000E+00               0
GRID*                400               06.0000000000E+001.0000000000E+00+
*       2.5000000000E+00               0
GRID*                401               06.0000000000E+002.0000000000E+00+
*       3.5000000000E+00               0
GRID*                402               06.0000000000E+001.5000000000E+00+
*       4.0000000000E+00               0
GRID*                403               06.0000000000E+001.0000000000E+00+
*       3.5000000000E+00               0
GRID*                404               06.0000000000E+002.5000000000E+00+
*       1.0000000000E+00               0
GRID*                405               06.0000000000E+002.0000000000E+00+
*       5.0000000000E-01               0
GRID*                406               06.0000000000E+002.5000000000E+00+
*       2.0000000000E+00               0
GRID*                407               06.0000000000E+002.5000000000E+00+
*       3.0000000000E+00               0
GRID*                408               06.0000000000E+002.5000000000E+00+
*       4.0000000000E+00               0
GRID*                409               06.0000000000E+002.0000000000E+00+
*       4.5000000000E+00               0
GRID*                410               06.0000000000E+001.0000000000E+00+
*       4.5000000000E+00               0
GRID*                411               06.0000000000E+005.0000000000E-01+
*       4.0000000000E+00               0
GRID*                412               06.0000000000E+005.0000000000E-01+
*       3.0000000000E+00               0
GRID*                413               06.0000000000E+005.0000000000E-01+
*       2.0000000000E+00               0
GRID*                414               06.0000000000E+005.0000000000E-01+
*       1.0000000000E+00               0
GRID*                415               06.0000000000E+001.0000000000E+00+
*       5.0000000000E-01               0
GRID*                282               00.0000000000E+002.0000000000E+00+
*       4.0000000000E+00               0
GRID*                283               00.0000000000E+001.0000000000E+00+
*       4.0000000000E+00               0
GRID*                284               00.0000000000E+002.0000000000E+00+
*       3.0000000000E+00               0
GRID*                285               00.0000000000E+001.0000000000E+00+
*       3.0000000000E+00               0
GRID*                286               00.0000000000E+002.0000000000E+00+
*       2.0000000000E+00               0
GRID*                287               00.0000000000E+001.0000000000E+00+
*       2.0000000000E+00               0
GRID*                288               00.0000000000E+002.0000000000E+00+
*       1.0000000000E+00               0
GRID*                289               00.0000000000E+001.0000000000E+00+
*       1.0000000000E+00               0
GRID*                290               00.0000000000E+002.0000000000E+00+
*       3.5000000000E+00               0
GRID*                291               00.0000000000E+001.5000000000E+00+
*       3.0000000000E+00               0
GRID*                292               00.0000000000E+001.0000000000E+00+
*       3.5000000000E+00               0
GRID*                293               00.0000000000E+001.5000000000E+00+
*       4.0000000000E+00               0
GRID*                294               00.0000000000E+002.0000000000E+00+
*       2.5000000000E+00               0
GRID*                295               00.0000000000E+001.5000000000E+00+
*       2.0000000000E+00               0
GRID*                296               00.0000000000E+001.0000000000E+00+
*       2.5000000000E+00               0
GRID*                297               00.0000000000E+002.0000000000E+00+
*       1.5000000000E+00               0
GRID*                298               00.0000000000E+001.5000000000E+00+
*       1.0000000000E+00               0
GRID*                299               00.0000000000E+001.0000000000E+00+
*       1.5000000000E+00               0
GRID*                300               00.0000000000E+002.5000000000E+00+
*       4.0000000000E+00               0
GRID*                301               00.0000000000E+002.0000000000E+00+
*       4.5000000000E+00               0
GRID*                302               00.0000000000E+002.5000000000E+00+
*       3.0000000000E+00               0
GRID*                303               00.0000000000E+002.5000000000E+00+
*       2.0000000000E+00               0
GRID*                304               00.0000000000E+002.5000000000E+00+
*       1.0000000000E+00               0
GRID*                305               00.0000000000E+002.0000000000E+00+
*       5.0000000000E-01               0
GRID*                306               00.0000000000E+001.0000000000E+00+
*       5.0000000000E-01               0
GRID*                307               00.0000000000E+005.0000000000E-01+
*       1.0000000000E+00               0
GRID*                308               00.0000000000E+005.0000000000E-01+
*       2.0000000000E+00               0
GRID*                309               00.0000000000E+005.0000000000E-01+
*       3.0000000000E+00               0
GRID*                310               00.0000000000E+005.0000000000E-01+
*       4.0000000000E+00               0
GRID*                311               00.0000000000E+001.0000000000E+00+
*       4.5000000000E+00               0
GRID*                  1               01.4909285677E+001.9999999987E+00+
*       3.9340617874E+00               0
GRID*                  2               02.1144621954E+001.9999999987E+00+
*       4.3506992151E+00               0
GRID*                  3               02.8499978550E+001.9999999987E+00+
*       4.4970074289E+00               0
GRID*                  4               03.5855079780E+001.9999999987E+00+
*       4.3507105940E+00               0
GRID*                  5               04.2090526707E+001.9999999987E+00+
*       3.9340716625E+00               0
GRID*                  6               05.1354897896E+001.9999999987E+00+
*       4.1687705658E+00               0
GRID*                  7               05.2522245922E+001.9999999987E+00+
*       3.5232953015E+00               0
GRID*                  8               05.3375442162E+001.9999999987E+00+
*       2.7299943096E+00               0
GRID*                  9               05.2633355578E+001.9999999987E+00+
*       1.8561745291E+00               0
GRID*                 10               04.8576572107E+001.9999999987E+00+
*       8.9568459764E-01               0
GRID*                 11               03.7966069624E+001.9999999987E+00+
*       4.4639141838E-01               0
GRID*                 12               02.9146624080E+001.9999999987E+00+
*       3.4020185948E-01               0
GRID*                 13               02.0365257836E+001.9999999987E+00+
*       4.2323191292E-01               0
GRID*                 14               01.0107485575E+001.9999999987E+00+
*       8.7937901454E-01               0
GRID*                 15               05.6003617906E-011.9999999987E+00+
*       1.8182044534E+00               0
GRID*                 16               01.0742866724E+001.9999999987E+00+
*       3.3105004340E+00               0
GRID*                 17               04.2261256348E-011.9999999987E+00+
*       2.4914234643E+00               0
GRID*                 18               09.2799011222E-011.9999999987E+00+
*       2.5749892007E+00               0
GRID*                 19               01.0743053375E+001.9999999987E+00+
*       1.8394627472E+00               0
GRID*                 20               01.4909433400E+001.9999999987E+00+
*       1.2159244967E+00               0
GRID*                 21               02.1144873704E+001.9999999987E+00+
*       7.9929505936E-01               0
GRID*                 22               02.8500159376E+001.9999999987E+00+
*       6.5299008230E-01               0
GRID*                 23               03.5855250164E+001.9999999987E+00+
*       7.9929692487E-01               0
GRID*                 24               04.2090806498E+001.9999999987E+00+
*       1.2159473450E+00               0
GRID*                 25               04.6257093633E+001.9999999987E+00+
*       1.8394868531E+00               0
GRID*                 26               04.7720072955E+001.9999999987E+00+
*       2.5750241917E+00               0
GRID*                 27               04.6257008891E+001.9999999987E+00+
*       3.3105325924E+00               0
GRID*                 28               01.4909285403E+009.9999998724E-01+
*       3.9340618279E+00               0
GRID*                 29               02.1144621680E+009.9999998724E-01+
*       4.3506992556E+00               0
GRID*                 30               02.8499978276E+009.9999998724E-01+
*       4.4970074694E+00               0
GRID*                 31               03.5855079506E+009.9999998724E-01+
*       4.3507106345E+00               0
GRID*                 32               04.2090526434E+009.9999998724E-01+
*       3.9340717030E+00               0
GRID*                 33               05.1354897622E+009.9999998724E-01+
*       4.1687706063E+00               0
GRID*                 34               05.2522245648E+009.9999998724E-01+
*       3.5232953420E+00               0
GRID*                 35               05.3375441888E+009.9999998724E-01+
*       2.7299943501E+00               0
GRID*                 36               05.2633355304E+009.9999998724E-01+
*       1.8561745696E+00               0
GRID*                 37               04.8576571833E+009.9999998724E-01+
*       8.9568463813E-01               0
GRID*                 38               03.7966069350E+009.9999998724E-01+
*       4.4639145887E-01               0
GRID*                 39               02.9146623806E+009.9999998724E-01+
*       3.4020189997E-01               0
GRID*                 40               02.0365257562E+009.9999998724E-01+
*       4.2323195340E-01               0
GRID*                 41               01.0107485302E+009.9999998724E-01+
*       8.7937905503E-01               0
GRID*                 42               05.6003615167E-019.9999998724E-01+
*       1.8182044939E+00               0
GRID*                 43               01.0742866450E+009.9999998724E-01+
*       3.3105004745E+00               0
GRID*                 44               04.2261253609E-019.9999998724E-01+
*       2.4914235048E+00               0
GRID*                 45               09.2799008483E-019.9999998724E-01+
*       2.5749892411E+00               0
GRID*                 46               01.0743053102E+009.9999998724E-01+
*       1.8394627876E+00               0
GRID*                 47               01.4909433127E+009.9999998724E-01+
*       1.2159245372E+00               0
GRID*                 48               02.1144873430E+009.9999998724E-01+
*       7.9929509984E-01               0
GRID*                 49               02.8500159102E+009.9999998724E-01+
*       6.5299012279E-01               0
GRID*                 50               03.5855249890E+009.9999998724E-01+
*       7.9929696536E-01               0
GRID*                 51               04.2090806224E+009.9999998724E-01+
*       1.2159473855E+00               0
GRID*                 52               04.6257093359E+009.9999998724E-01+
*       1.8394868936E+00               0
GRID*                 53               04.7720072681E+009.9999998724E-01+
*       2.5750242322E+00               0
GRID*                 54               04.6257008617E+009.9999998724E-01+
*       3.3105326329E+00               0
GRID*                 55               02.1144622094E+002.4999999993E+00+
*       4.3506992578E+00               0
GRID*                 56               02.8499978690E+002.4999999993E+00+
*       4.4970074717E+00               0
GRID*                 57               02.2191311415E+001.9999999803E+00+
*       4.0980146225E+00               0
GRID*                 58               02.8499989990E+001.9999999993E+00+
*       4.2235037383E+00               0
GRID*                 59               02.4822300252E+001.9999999987E+00+
*       4.4238533220E+00               0
GRID*                 60               02.1144621817E+001.4999999930E+00+
*       4.3506992353E+00               0
GRID*                 61               02.8499978413E+001.4999999930E+00+
*       4.4970074492E+00               0
GRID*                 62               02.2191327261E+009.9999999023E-01+
*       4.0980153609E+00               0
GRID*                 63               02.8499989853E+009.9999999362E-01+
*       4.2235037585E+00               0
GRID*                 64               02.4822299978E+009.9999998724E-01+
*       4.4238533625E+00               0
GRID*                 65               02.1144621743E+004.9999999362E-01+
*       4.3506992558E+00               0
GRID*                 66               02.8499978339E+004.9999999362E-01+
*       4.4970074696E+00               0
GRID*                 67               01.4909285817E+002.4999999993E+00+
*       3.9340618301E+00               0
GRID*                 68               01.6843290374E+001.9999999907E+00+
*       3.7406674326E+00               0
GRID*                 69               01.8026953815E+001.9999999987E+00+
*       4.1423805012E+00               0
GRID*                 70               01.4909285540E+001.4999999930E+00+
*       3.9340618076E+00               0
GRID*                 71               01.6843285508E+009.9999997681E-01+
*       3.7406669839E+00               0
GRID*                 72               01.8026953542E+009.9999998724E-01+
*       4.1423805417E+00               0
GRID*                 73               01.4909285466E+004.9999999362E-01+
*       3.9340618281E+00               0
GRID*                 74               01.0742866864E+002.4999999993E+00+
*       3.3105004767E+00               0
GRID*                 75               01.3269734452E+002.0000000014E+00+
*       3.2058385612E+00               0
GRID*                 76               01.2826076200E+001.9999999987E+00+
*       3.6222811107E+00               0
GRID*                 77               01.0742866587E+001.4999999930E+00+
*       3.3105004542E+00               0
GRID*                 78               01.3269748729E+009.9999996076E-01+
*       3.2058419918E+00               0
GRID*                 79               01.2826075927E+009.9999998724E-01+
*       3.6222811512E+00               0
GRID*                 80               01.0742866513E+004.9999999362E-01+
*       3.3105004747E+00               0
GRID*                 81               09.2799012620E-012.4999999993E+00+
*       2.5749892434E+00               0
GRID*                 82               01.2014951621E+002.0000000441E+00+
*       2.5749968150E+00               0
GRID*                 83               01.0011383923E+001.9999999987E+00+
*       2.9427448173E+00               0
GRID*                 84               09.2799009852E-011.4999999930E+00+
*       2.5749892209E+00               0
GRID*                 85               01.2014951100E+009.9999995086E-01+
*       2.5749950505E+00               0
GRID*                 86               01.0011383649E+009.9999998724E-01+
*       2.9427448578E+00               0
GRID*                 87               09.2799009111E-014.9999999362E-01+
*       2.5749892414E+00               0
GRID*                 88               01.0743053515E+002.4999999993E+00+
*       1.8394627899E+00               0
GRID*                 89               01.3269876785E+001.9999999689E+00+
*       1.9441312700E+00               0
GRID*                 90               01.0011477249E+001.9999999987E+00+
*       2.2072259739E+00               0
GRID*                 91               01.0743053239E+001.4999999930E+00+
*       1.8394627674E+00               0
GRID*                 92               01.3269866396E+009.9999995944E-01+
*       1.9441338290E+00               0
GRID*                 93               01.0011476975E+009.9999998724E-01+
*       2.2072260144E+00               0
GRID*                 94               01.0743053164E+004.9999999362E-01+
*       1.8394627879E+00               0
GRID*                 95               01.4909433540E+002.4999999993E+00+
*       1.2159245395E+00               0
GRID*                 96               01.6843361602E+002.0000000088E+00+
*       1.4093261916E+00               0
GRID*                 97               01.2826243388E+001.9999999987E+00+
*       1.5276936219E+00               0
GRID*                 98               01.4909433263E+001.4999999930E+00+
*       1.2159245170E+00               0
GRID*                 99               01.6843343238E+001.0000000160E+00+
*       1.4093278632E+00               0
GRID*                100               01.2826243114E+009.9999998724E-01+
*       1.5276936624E+00               0
GRID*                101               01.4909433189E+004.9999999362E-01+
*       1.2159245375E+00               0
GRID*                102               02.1144873844E+002.4999999993E+00+
*       7.9929510211E-01               0
GRID*                103               02.2191505432E+001.9999999892E+00+
*       1.0519796345E+00               0
GRID*                104               01.8027153552E+001.9999999987E+00+
*       1.0076097780E+00               0
GRID*                105               02.1144873567E+001.4999999930E+00+
*       7.9929507960E-01               0
GRID*                106               02.2191501448E+009.9999998009E-01+
*       1.0519798142E+00               0
GRID*                107               01.8027153278E+009.9999998724E-01+
*       1.0076098185E+00               0
GRID*                108               02.1144873493E+004.9999999362E-01+
*       7.9929510010E-01               0
GRID*                109               02.8500159516E+002.4999999993E+00+
*       6.5299012505E-01               0
GRID*                110               02.8500118786E+001.9999999783E+00+
*       9.2649521005E-01               0
GRID*                111               02.4822516540E+001.9999999987E+00+
*       7.2614257083E-01               0
GRID*                112               02.8500159239E+001.4999999930E+00+
*       6.5299010254E-01               0
GRID*                113               02.8500097569E+009.9999999110E-01+
*       9.2649512632E-01               0
GRID*                114               02.4822516266E+009.9999998724E-01+
*       7.2614261132E-01               0
GRID*                115               02.8500159165E+004.9999999362E-01+
*       6.5299012304E-01               0
GRID*                116               03.5855250304E+002.4999999993E+00+
*       7.9929696763E-01               0
GRID*                117               03.4808569659E+001.9999999927E+00+
*       1.0519811745E+00               0
GRID*                118               03.2177704770E+001.9999999987E+00+
*       7.2614350359E-01               0
GRID*                119               03.5855250027E+001.4999999930E+00+
*       7.9929694512E-01               0
GRID*                120               03.4808570799E+009.9999999287E-01+
*       1.0519812395E+00               0
GRID*                121               03.2177704496E+009.9999998724E-01+
*       7.2614354407E-01               0
GRID*                122               03.5855249953E+004.9999999362E-01+
*       7.9929696561E-01               0
GRID*                123               04.2090806638E+002.4999999993E+00+
*       1.2159473878E+00               0
GRID*                124               04.0156810734E+001.9999999948E+00+
*       1.4093426299E+00               0
GRID*                125               03.8973028331E+001.9999999987E+00+
*       1.0076221350E+00               0
GRID*                126               04.2090806361E+001.4999999930E+00+
*       1.2159473653E+00               0
GRID*                127               04.0156788532E+009.9999997666E-01+
*       1.4093404577E+00               0
GRID*                128               03.8973028057E+009.9999998724E-01+
*       1.0076221754E+00               0
GRID*                129               04.2090806287E+004.9999999362E-01+
*       1.2159473858E+00               0
GRID*                130               04.6257093773E+002.4999999993E+00+
*       1.8394868959E+00               0
GRID*                131               04.3730209074E+002.0000000360E+00+
*       1.9441463367E+00               0
GRID*                132               04.4173950066E+001.9999999987E+00+
*       1.5277170991E+00               0
GRID*                133               04.6257093496E+001.4999999930E+00+
*       1.8394868734E+00               0
GRID*                134               04.3730217543E+009.9999995703E-01+
*       1.9441484424E+00               0
GRID*                135               04.4173949792E+009.9999998724E-01+
*       1.5277171396E+00               0
GRID*                136               04.6257093422E+004.9999999362E-01+
*       1.8394868938E+00               0
GRID*                137               04.7720073095E+002.4999999993E+00+
*       2.5750242345E+00               0
GRID*                138               04.4985035920E+001.9999999795E+00+
*       2.5750184733E+00               0
GRID*                139               04.6988583294E+001.9999999987E+00+
*       2.2072555224E+00               0
GRID*                140               04.7720072818E+001.4999999930E+00+
*       2.5750242120E+00               0
GRID*                141               04.4985035543E+009.9999995889E-01+
*       2.5750152733E+00               0
GRID*                142               04.6988583020E+009.9999998724E-01+
*       2.2072555629E+00               0
GRID*                143               04.7720072744E+004.9999999362E-01+
*       2.5750242325E+00               0
GRID*                144               04.6257009031E+002.4999999993E+00+
*       3.3105326352E+00               0
GRID*                145               04.3730179697E+002.0000000311E+00+
*       3.2058600493E+00               0
GRID*                146               04.6988540923E+001.9999999987E+00+
*       2.9427783921E+00               0
GRID*                147               04.6257008754E+001.4999999930E+00+
*       3.3105326127E+00               0
GRID*                148               04.3730181516E+009.9999997647E-01+
*       3.2058597650E+00               0
GRID*                149               04.6988540649E+009.9999998724E-01+
*       2.9427784326E+00               0
GRID*                150               04.6257008680E+004.9999999362E-01+
*       3.3105326332E+00               0
GRID*                151               04.2090526847E+002.4999999993E+00+
*       3.9340717052E+00               0
GRID*                152               04.0156595608E+001.9999999787E+00+
*       3.7406744231E+00               0
GRID*                153               04.4173767799E+001.9999999987E+00+
*       3.6223021275E+00               0
GRID*                154               04.2090526571E+001.4999999930E+00+
*       3.9340716827E+00               0
GRID*                155               04.0156604202E+009.9999996607E-01+
*       3.7406735659E+00               0
GRID*                156               04.4173767525E+009.9999998724E-01+
*       3.6223021679E+00               0
GRID*                157               04.2090526496E+004.9999999362E-01+
*       3.9340717032E+00               0
GRID*                158               03.5855079920E+002.4999999993E+00+
*       4.3507106368E+00               0
GRID*                159               03.4808467866E+001.9999999903E+00+
*       4.0980230825E+00               0
GRID*                160               03.8972803244E+001.9999999987E+00+
*       4.1423911283E+00               0
GRID*                161               03.5855079643E+001.4999999930E+00+
*       4.3507106143E+00               0
GRID*                162               03.4808492382E+001.0000000085E+00+
*       4.0980222158E+00               0
GRID*                163               03.8972802970E+009.9999998724E-01+
*       4.1423911687E+00               0
GRID*                164               03.5855079569E+004.9999999362E-01+
*       4.3507106348E+00               0
GRID*                165               03.2177529165E+001.9999999987E+00+
*       4.4238590115E+00               0
GRID*                166               03.2177528891E+009.9999998724E-01+
*       4.4238590520E+00               0
GRID*                167               02.0572310977E+001.9999999993E+00+
*       4.6753496075E+00               0
GRID*                168               02.9249989275E+001.9999999993E+00+
*       4.7485037145E+00               0
GRID*                169               02.0572310840E+009.9999999362E-01+
*       4.6753496278E+00               0
GRID*                170               02.9249989138E+009.9999999362E-01+
*       4.7485037347E+00               0
GRID*                171               03.7927539890E+001.9999999993E+00+
*       4.6753552970E+00               0
GRID*                172               03.7927539753E+009.9999999362E-01+
*       4.6753553173E+00               0
GRID*                173               05.2522246062E+002.4999999993E+00+
*       3.5232953443E+00               0
GRID*                174               05.1354898036E+002.4999999993E+00+
*       4.1687706086E+00               0
GRID*                175               05.6261122961E+001.9999999993E+00+
*       3.7616476508E+00               0
GRID*                176               05.5677448948E+001.9999999993E+00+
*       4.5843852829E+00               0
GRID*                177               05.1938571909E+001.9999999987E+00+
*       3.8460329337E+00               0
GRID*                178               05.2522245785E+001.4999999930E+00+
*       3.5232953217E+00               0
GRID*                179               05.1354897759E+001.4999999930E+00+
*       4.1687705861E+00               0
GRID*                180               05.6261122824E+009.9999999362E-01+
*       3.7616476710E+00               0
GRID*                181               05.5677448811E+009.9999999362E-01+
*       4.5843853032E+00               0
GRID*                182               05.1938571635E+009.9999998724E-01+
*       3.8460329742E+00               0
GRID*                183               05.2522245711E+004.9999999362E-01+
*       3.5232953422E+00               0
GRID*                184               05.1354897685E+004.9999999362E-01+
*       4.1687706066E+00               0
GRID*                185               04.9389627406E+001.9999999987E+00+
*       3.4169139470E+00               0
GRID*                186               04.6722712302E+001.9999999987E+00+
*       4.0514211142E+00               0
GRID*                187               04.9389627132E+009.9999998724E-01+
*       3.4169139874E+00               0
GRID*                188               04.6722712028E+009.9999998724E-01+
*       4.0514211547E+00               0
GRID*                189               05.2633355718E+002.4999999993E+00+
*       1.8561745719E+00               0
GRID*                190               04.8576572247E+002.4999999993E+00+
*       8.9568464039E-01               0
GRID*                191               05.6316677789E+001.9999999993E+00+
*       1.9280872646E+00               0
GRID*                192               05.0604963843E+001.9999999987E+00+
*       1.3759295634E+00               0
GRID*                193               05.4288286054E+001.9999999993E+00+
*       9.4784229882E-01               0
GRID*                194               05.2633355441E+001.4999999930E+00+
*       1.8561745494E+00               0
GRID*                195               04.8576571970E+001.4999999930E+00+
*       8.9568461788E-01               0
GRID*                196               05.6316677652E+009.9999999362E-01+
*       1.9280872848E+00               0
GRID*                197               05.0604963569E+009.9999998724E-01+
*       1.3759296039E+00               0
GRID*                198               05.4288285917E+009.9999999362E-01+
*       9.4784231906E-01               0
GRID*                199               05.2633355367E+004.9999999362E-01+
*       1.8561745699E+00               0
GRID*                200               04.8576571896E+004.9999999362E-01+
*       8.9568463838E-01               0
GRID*                201               04.9288286054E+001.9999999993E+00+
*       4.4784229882E-01               0
GRID*                202               04.9288285917E+009.9999999362E-01+
*       4.4784231906E-01               0
GRID*                203               04.9445224605E+001.9999999987E+00+
*       1.8478306911E+00               0
GRID*                204               04.5333689303E+001.9999999987E+00+
*       1.0558159713E+00               0
GRID*                205               04.9445224332E+009.9999998724E-01+
*       1.8478307316E+00               0
GRID*                206               04.5333689029E+009.9999998724E-01+
*       1.0558160118E+00               0
GRID*                207               03.7966069764E+002.4999999993E+00+
*       4.4639146114E-01               0
GRID*                208               03.8983034812E+001.9999999993E+00+
*       2.2319570919E-01               0
GRID*                209               04.3271320866E+001.9999999987E+00+
*       6.7103800801E-01               0
GRID*                210               03.7966069487E+001.4999999930E+00+
*       4.4639143863E-01               0
GRID*                211               03.8983034675E+009.9999999362E-01+
*       2.2319572943E-01               0
GRID*                212               04.3271320592E+009.9999998724E-01+
*       6.7103804850E-01               0
GRID*                213               03.7966069413E+004.9999999362E-01+
*       4.4639145912E-01               0
GRID*                214               03.6910659894E+001.9999999987E+00+
*       6.2284417163E-01               0
GRID*                215               03.6910659620E+009.9999998724E-01+
*       6.2284421211E-01               0
GRID*                216               05.3375442302E+002.4999999993E+00+
*       2.7299943523E+00               0
GRID*                217               05.0547757558E+001.9999999987E+00+
*       2.6525092507E+00               0
GRID*                218               05.2948844042E+001.9999999987E+00+
*       3.1266448055E+00               0
GRID*                219               05.3375442025E+001.4999999930E+00+
*       2.7299943298E+00               0
GRID*                220               05.0547757284E+009.9999998724E-01+
*       2.6525092911E+00               0
GRID*                221               05.2948843768E+009.9999998724E-01+
*       3.1266448460E+00               0
GRID*                222               05.3375441951E+004.9999999362E-01+
*       2.7299943503E+00               0
GRID*                223               05.6687721081E+001.9999999993E+00+
*       2.8649971548E+00               0
GRID*                224               05.6687720944E+009.9999999362E-01+
*       2.8649971750E+00               0
GRID*                225               05.3004398870E+001.9999999987E+00+
*       2.2930844194E+00               0
GRID*                226               05.3004398596E+009.9999998724E-01+
*       2.2930844598E+00               0
GRID*                227               01.2454642839E+001.9999999993E+00+
*       4.4670308937E+00               0
GRID*                228               01.2454642702E+009.9999999362E-01+
*       4.4670309139E+00               0
GRID*                229               05.3714333618E-011.9999999993E+00+
*       3.1552502170E+00               0
GRID*                230               07.4546428386E-011.9999999993E+00+
*       3.9670308937E+00               0
GRID*                231               05.3714332249E-019.9999999362E-01+
*       3.1552502372E+00               0
GRID*                232               07.4546427016E-019.9999999362E-01+
*       3.9670309139E+00               0
GRID*                233               04.2261257746E-012.4999999993E+00+
*       2.4914235070E+00               0
GRID*                234               05.6003619305E-012.4999999993E+00+
*       1.8182044961E+00               0
GRID*                235               04.9132437127E-011.9999999987E+00+
*       2.1548139588E+00               0
GRID*                236               08.1717075830E-011.9999999987E+00+
*       1.8288336003E+00               0
GRID*                237               06.7530133785E-011.9999999987E+00+
*       2.5332063325E+00               0
GRID*                238               04.2261254978E-011.4999999930E+00+
*       2.4914234845E+00               0
GRID*                239               05.6003616537E-011.4999999930E+00+
*       1.8182044736E+00               0
GRID*                240               04.9132434388E-019.9999998724E-01+
*       2.1548139993E+00               0
GRID*                241               08.1717073092E-019.9999998724E-01+
*       1.8288336408E+00               0
GRID*                242               06.7530131046E-019.9999998724E-01+
*       2.5332063730E+00               0
GRID*                243               04.2261254237E-014.9999999362E-01+
*       2.4914235050E+00               0
GRID*                244               05.6003615795E-014.9999999362E-01+
*       1.8182044941E+00               0
GRID*                245               02.1130628174E-011.9999999993E+00+
*       2.7457117321E+00               0
GRID*                246               02.8001808953E-011.9999999993E+00+
*       1.9091022267E+00               0
GRID*                247               02.1130626804E-019.9999999362E-01+
*       2.7457117524E+00               0
GRID*                248               02.8001807584E-019.9999999362E-01+
*       1.9091022469E+00               0
GRID*                249               02.9146624220E+002.4999999993E+00+
*       3.4020190223E-01               0
GRID*                250               02.8823391728E+001.9999999987E+00+
*       4.9659597089E-01               0
GRID*                251               03.3556346852E+001.9999999987E+00+
*       3.9329663893E-01               0
GRID*                252               02.9146623943E+001.4999999930E+00+
*       3.4020187972E-01               0
GRID*                253               02.8823391454E+009.9999998724E-01+
*       4.9659601138E-01               0
GRID*                254               03.3556346578E+009.9999998724E-01+
*       3.9329667942E-01               0
GRID*                255               02.9146623869E+004.9999999362E-01+
*       3.4020190022E-01               0
GRID*                256               02.9573312040E+001.9999999993E+00+
*       1.7010092974E-01               0
GRID*                257               02.9573311903E+009.9999999362E-01+
*       1.7010094998E-01               0
GRID*                258               02.0365257976E+002.4999999993E+00+
*       4.2323195567E-01               0
GRID*                259               02.0755065770E+001.9999999987E+00+
*       6.1126348614E-01               0
GRID*                260               02.4755940958E+001.9999999987E+00+
*       3.8171688620E-01               0
GRID*                261               02.0365257699E+001.4999999930E+00+
*       4.2323193316E-01               0
GRID*                262               02.0755065496E+009.9999998724E-01+
*       6.1126352662E-01               0
GRID*                263               02.4755940684E+009.9999998724E-01+
*       3.8171692668E-01               0
GRID*                264               02.0365257625E+004.9999999362E-01+
*       4.2323195365E-01               0
GRID*                265               02.0182628918E+001.9999999993E+00+
*       2.1161595646E-01               0
GRID*                266               02.0182628781E+009.9999999362E-01+
*       2.1161597670E-01               0
GRID*                267               01.0107485715E+002.4999999993E+00+
*       8.7937905729E-01               0
GRID*                268               01.2508459488E+001.9999999987E+00+
*       1.0476517556E+00               0
GRID*                269               01.5236371706E+001.9999999987E+00+
*       6.5130546373E-01               0
GRID*                270               01.0107485438E+001.4999999930E+00+
*       8.7937903478E-01               0
GRID*                271               01.2508459214E+009.9999998724E-01+
*       1.0476517961E+00               0
GRID*                272               01.5236371432E+009.9999998724E-01+
*       6.5130550421E-01               0
GRID*                273               01.0107485364E+004.9999999362E-01+
*       8.7937905528E-01               0
GRID*                274               01.0053742788E+001.9999999993E+00+
*       4.3968950727E-01               0
GRID*                275               01.0053742651E+009.9999999362E-01+
*       4.3968952751E-01               0
GRID*                276               05.0537427877E-011.9999999993E+00+
*       9.3968950727E-01               0
GRID*                277               05.0537426508E-019.9999999362E-01+
*       9.3968952751E-01               0
GRID*                278               07.8539236830E-011.9999999987E+00+
*       1.3487917340E+00               0
GRID*                279               07.8539234091E-019.9999998724E-01+
*       1.3487917744E+00               0
GRID*                280               04.6045263354E+001.9999999993E+00+
*       4.4670358312E+00               0
GRID*                281               04.6045263217E+009.9999999362E-01+
*       4.4670358515E+00               0
GRID*               1385               06.0000000000E+008.0000000000E+00+
*       0.0000000000E+00               0
GRID*               1386               06.0000000000E+008.0000000000E+00+
*       5.0000000000E+00               0
GRID*               1351               06.0000000000E+007.0000000000E+00+
*       0.0000000000E+00               0
GRID*               1352               06.0000000000E+006.0000000000E+00+
*       0.0000000000E+00               0
GRID*               1353               06.0000000000E+005.0000000000E+00+
*       0.0000000000E+00               0
GRID*               1354               06.0000000000E+004.0000000000E+00+
*       0.0000000000E+00               0
GRID*               1355               06.0000000000E+007.5000000000E+00+
*       0.0000000000E+00               0
GRID*               1356               06.0000000000E+006.5000000000E+00+
*       0.0000000000E+00               0
GRID*               1357               06.0000000000E+005.5000000000E+00+
*       0.0000000000E+00               0
GRID*               1358               06.0000000000E+004.5000000000E+00+
*       0.0000000000E+00               0
GRID*               1359               06.0000000000E+003.5000000000E+00+
*       0.0000000000E+00               0
GRID*               1360               06.0000000000E+004.0000000000E+00+
*       5.0000000000E+00               0
GRID*               1361               06.0000000000E+005.0000000000E+00+
*       5.0000000000E+00               0
GRID*               1362               06.0000000000E+006.0000000000E+00+
*       5.0000000000E+00               0
GRID*               1363               06.0000000000E+007.0000000000E+00+
*       5.0000000000E+00               0
GRID*               1364               06.0000000000E+003.5000000000E+00+
*       5.0000000000E+00               0
GRID*               1365               06.0000000000E+004.5000000000E+00+
*       5.0000000000E+00               0
GRID*               1366               06.0000000000E+005.5000000000E+00+
*       5.0000000000E+00               0
GRID*               1367               06.0000000000E+006.5000000000E+00+
*       5.0000000000E+00               0
GRID*               1368               06.0000000000E+007.5000000000E+00+
*       5.0000000000E+00               0
GRID*               1342               06.0000000000E+008.0000000000E+00+
*       1.0000000000E+00               0
GRID*               1343               06.0000000000E+008.0000000000E+00+
*       2.0000000000E+00               0
GRID*               1344               06.0000000000E+008.0000000000E+00+
*       3.0000000000E+00               0
GRID*               1345               06.0000000000E+008.0000000000E+00+
*       4.0000000000E+00               0
GRID*               1346               06.0000000000E+008.0000000000E+00+
*       5.0000000000E-01               0
GRID*               1347               06.0000000000E+008.0000000000E+00+
*       1.5000000000E+00               0
GRID*               1348               06.0000000000E+008.0000000000E+00+
*       4.5000000000E+00               0
GRID*               1349               06.0000000000E+008.0000000000E+00+
*       2.5000000000E+00               0
GRID*               1350               06.0000000000E+008.0000000000E+00+
*       3.5000000000E+00               0
GRID*               1372               06.7500000000E+000.0000000000E+00+
*       0.0000000000E+00               0
GRID*               1373               06.3750000000E+000.0000000000E+00+
*       0.0000000000E+00               0
GRID*               1374               07.1250000000E+000.0000000000E+00+
*       0.0000000000E+00               0
GRID*               1369               06.7500000000E+000.0000000000E+00+
*       5.0000000000E+00               0
GRID*               1370               07.1250000000E+000.0000000000E+00+
*       5.0000000000E+00               0
GRID*               1371               06.3750000000E+000.0000000000E+00+
*       5.0000000000E+00               0
GRID*               1375               06.7500000000E+008.0000000000E+00+
*       0.0000000000E+00               0
GRID*               1376               06.3750000000E+008.0000000000E+00+
*       0.0000000000E+00               0
GRID*               1377               07.1250000000E+008.0000000000E+00+
*       0.0000000000E+00               0
GRID*               1378               06.7500000000E+008.0000000000E+00+
*       5.0000000000E+00               0
GRID*               1379               07.1250000000E+008.0000000000E+00+
*       5.0000000000E+00               0
GRID*               1380               06.3750000000E+008.0000000000E+00+
*       5.0000000000E+00               0
GRID*               1180               06.0000000000E+007.0000000000E+00+
*       1.0000000000E+00               0
GRID*               1181               06.0000000000E+007.0000000000E+00+
*       2.0000000000E+00               0
GRID*               1182               06.0000000000E+007.0000000000E+00+
*       3.0000000000E+00               0
GRID*               1183               06.0000000000E+007.0000000000E+00+
*       4.0000000000E+00               0
GRID*               1184               06.0000000000E+006.0000000000E+00+
*       1.0000000000E+00               0
GRID*               1185               06.0000000000E+006.0000000000E+00+
*       2.0000000000E+00               0
GRID*               1186               06.0000000000E+006.0000000000E+00+
*       3.0000000000E+00               0
GRID*               1187               06.0000000000E+006.0000000000E+00+
*       4.0000000000E+00               0
GRID*               1188               06.0000000000E+005.0000000000E+00+
*       1.0000000000E+00               0
GRID*               1189               06.0000000000E+005.0000000000E+00+
*       2.0000000000E+00               0
GRID*               1190               06.0000000000E+005.0000000000E+00+
*       3.0000000000E+00               0
GRID*               1191               06.0000000000E+005.0000000000E+00+
*       4.0000000000E+00               0
GRID*               1192               06.0000000000E+004.0000000000E+00+
*       1.0000000000E+00               0
GRID*               1193               06.0000000000E+004.0000000000E+00+
*       2.0000000000E+00               0
GRID*               1194               06.0000000000E+004.0000000000E+00+
*       3.0000000000E+00               0
GRID*               1195               06.0000000000E+004.0000000000E+00+
*       4.0000000000E+00               0
GRID*               1196               06.0000000000E+006.5000000000E+00+
*       1.0000000000E+00               0
GRID*               1197               06.0000000000E+006.0000000000E+00+
*       1.5000000000E+00               0
GRID*               1198               06.0000000000E+006.5000000000E+00+
*       2.0000000000E+00               0
GRID*               1199               06.0000000000E+007.0000000000E+00+
*       1.5000000000E+00               0
GRID*               1200               06.0000000000E+006.0000000000E+00+
*       2.5000000000E+00               0
GRID*               1201               06.0000000000E+006.5000000000E+00+
*       3.0000000000E+00               0
GRID*               1202               06.0000000000E+007.0000000000E+00+
*       2.5000000000E+00               0
GRID*               1203               06.0000000000E+006.0000000000E+00+
*       3.5000000000E+00               0
GRID*               1204               06.0000000000E+006.5000000000E+00+
*       4.0000000000E+00               0
GRID*               1205               06.0000000000E+007.0000000000E+00+
*       3.5000000000E+00               0
GRID*               1206               06.0000000000E+005.5000000000E+00+
*       1.0000000000E+00               0
GRID*               1207               06.0000000000E+005.0000000000E+00+
*       1.5000000000E+00               0
GRID*               1208               06.0000000000E+005.5000000000E+00+
*       2.0000000000E+00               0
GRID*               1209               06.0000000000E+005.0000000000E+00+
*       2.5000000000E+00               0
GRID*               1210               06.0000000000E+005.5000000000E+00+
*       3.0000000000E+00               0
GRID*               1211               06.0000000000E+005.0000000000E+00+
*       3.5000000000E+00               0
GRID*               1212               06.0000000000E+005.5000000000E+00+
*       4.0000000000E+00               0
GRID*               1213               06.0000000000E+004.5000000000E+00+
*       1.0000000000E+00               0
GRID*               1214               06.0000000000E+004.0000000000E+00+
*       1.5000000000E+00               0
GRID*               1215               06.0000000000E+004.5000000000E+00+
*       2.0000000000E+00               0
GRID*               1216               06.0000000000E+004.0000000000E+00+
*       2.5000000000E+00               0
GRID*               1217               06.0000000000E+004.5000000000E+00+
*       3.0000000000E+00               0
GRID*               1218               06.0000000000E+004.0000000000E+00+
*       3.5000000000E+00               0
GRID*               1219               06.0000000000E+004.5000000000E+00+
*       4.0000000000E+00               0
GRID*               1220               06.0000000000E+007.0000000000E+00+
*       5.0000000000E-01               0
GRID*               1221               06.0000000000E+007.5000000000E+00+
*       1.0000000000E+00               0
GRID*               1222               06.0000000000E+006.0000000000E+00+
*       5.0000000000E-01               0
GRID*               1223               06.0000000000E+005.0000000000E+00+
*       5.0000000000E-01               0
GRID*               1224               06.0000000000E+004.0000000000E+00+
*       5.0000000000E-01               0
GRID*               1225               06.0000000000E+003.5000000000E+00+
*       1.0000000000E+00               0
GRID*               1226               06.0000000000E+003.5000000000E+00+
*       2.0000000000E+00               0
GRID*               1227               06.0000000000E+003.5000000000E+00+
*       3.0000000000E+00               0
GRID*               1228               06.0000000000E+003.5000000000E+00+
*       4.0000000000E+00               0
GRID*               1229               06.0000000000E+004.0000000000E+00+
*       4.5000000000E+00               0
GRID*               1230               06.0000000000E+005.0000000000E+00+
*       4.5000000000E+00               0
GRID*               1231               06.0000000000E+006.0000000000E+00+
*       4.5000000000E+00               0
GRID*               1232               06.0000000000E+007.0000000000E+00+
*       4.5000000000E+00               0
GRID*               1233               06.0000000000E+007.5000000000E+00+
*       4.0000000000E+00               0
GRID*               1234               06.0000000000E+007.5000000000E+00+
*       3.0000000000E+00               0
GRID*               1235               06.0000000000E+007.5000000000E+00+
*       2.0000000000E+00               0
GRID*               1236               06.7500000000E+007.0000000000E+00+
*       0.0000000000E+00               0
GRID*               1237               06.7500000000E+006.0000000000E+00+
*       0.0000000000E+00               0
GRID*               1238               06.7500000000E+005.0000000000E+00+
*       0.0000000000E+00               0
GRID*               1239               06.7500000000E+004.0000000000E+00+
*       0.0000000000E+00               0
GRID*               1240               06.7500000000E+003.0000000000E+00+
*       0.0000000000E+00               0
GRID*               1241               06.7500000000E+002.0000000000E+00+
*       0.0000000000E+00               0
GRID*               1242               06.7500000000E+001.0000000000E+00+
*       0.0000000000E+00               0
GRID*               1243               07.1250000000E+007.0000000000E+00+
*       0.0000000000E+00               0
GRID*               1244               06.7500000000E+007.5000000000E+00+
*       0.0000000000E+00               0
GRID*               1245               07.1250000000E+006.0000000000E+00+
*       0.0000000000E+00               0
GRID*               1246               06.7500000000E+006.5000000000E+00+
*       0.0000000000E+00               0
GRID*               1247               07.1250000000E+005.0000000000E+00+
*       0.0000000000E+00               0
GRID*               1248               06.7500000000E+005.5000000000E+00+
*       0.0000000000E+00               0
GRID*               1249               07.1250000000E+004.0000000000E+00+
*       0.0000000000E+00               0
GRID*               1250               06.7500000000E+004.5000000000E+00+
*       0.0000000000E+00               0
GRID*               1251               07.1250000000E+003.0000000000E+00+
*       0.0000000000E+00               0
GRID*               1252               06.7500000000E+003.5000000000E+00+
*       0.0000000000E+00               0
GRID*               1253               07.1250000000E+002.0000000000E+00+
*       0.0000000000E+00               0
GRID*               1254               06.7500000000E+002.5000000000E+00+
*       0.0000000000E+00               0
GRID*               1255               07.1250000000E+001.0000000000E+00+
*       0.0000000000E+00               0
GRID*               1256               06.7500000000E+001.5000000000E+00+
*       0.0000000000E+00               0
GRID*               1257               06.7500000000E+005.0000000000E-01+
*       0.0000000000E+00               0
GRID*               1258               06.3750000000E+001.0000000000E+00+
*       0.0000000000E+00               0
GRID*               1259               06.3750000000E+002.0000000000E+00+
*       0.0000000000E+00               0
GRID*               1260               06.3750000000E+003.0000000000E+00+
*       0.0000000000E+00               0
GRID*               1261               06.3750000000E+004.0000000000E+00+
*       0.0000000000E+00               0
GRID*               1262               06.3750000000E+005.0000000000E+00+
*       0.0000000000E+00               0
GRID*               1263               06.3750000000E+006.0000000000E+00+
*       0.0000000000E+00               0
GRID*               1264               06.3750000000E+007.0000000000E+00+
*       0.0000000000E+00               0
GRID*               1265               06.7500000000E+001.0000000000E+00+
*       5.0000000000E+00               0
GRID*               1266               06.7500000000E+002.0000000000E+00+
*       5.0000000000E+00               0
GRID*               1267               06.7500000000E+003.0000000000E+00+
*       5.0000000000E+00               0
GRID*               1268               06.7500000000E+004.0000000000E+00+
*       5.0000000000E+00               0
GRID*               1269               06.7500000000E+005.0000000000E+00+
*       5.0000000000E+00               0
GRID*               1270               06.7500000000E+006.0000000000E+00+
*       5.0000000000E+00               0
GRID*               1271               06.7500000000E+007.0000000000E+00+
*       5.0000000000E+00               0
GRID*               1272               07.1250000000E+001.0000000000E+00+
*       5.0000000000E+00               0
GRID*               1273               06.7500000000E+005.0000000000E-01+
*       5.0000000000E+00               0
GRID*               1274               07.1250000000E+002.0000000000E+00+
*       5.0000000000E+00               0
GRID*               1275               06.7500000000E+001.5000000000E+00+
*       5.0000000000E+00               0
GRID*               1276               07.1250000000E+003.0000000000E+00+
*       5.0000000000E+00               0
GRID*               1277               06.7500000000E+002.5000000000E+00+
*       5.0000000000E+00               0
GRID*               1278               07.1250000000E+004.0000000000E+00+
*       5.0000000000E+00               0
GRID*               1279               06.7500000000E+003.5000000000E+00+
*       5.0000000000E+00               0
GRID*               1280               07.1250000000E+005.0000000000E+00+
*       5.0000000000E+00               0
GRID*               1281               06.7500000000E+004.5000000000E+00+
*       5.0000000000E+00               0
GRID*               1282               07.1250000000E+006.0000000000E+00+
*       5.0000000000E+00               0
GRID*               1283               06.7500000000E+005.5000000000E+00+
*       5.0000000000E+00               0
GRID*               1284               07.1250000000E+007.0000000000E+00+
*       5.0000000000E+00               0
GRID*               1285               06.7500000000E+006.5000000000E+00+
*       5.0000000000E+00               0
GRID*               1286               06.7500000000E+007.5000000000E+00+
*       5.0000000000E+00               0
GRID*               1287               06.3750000000E+007.0000000000E+00+
*       5.0000000000E+00               0
GRID*               1288               06.3750000000E+006.0000000000E+00+
*       5.0000000000E+00               0
GRID*               1289               06.3750000000E+005.0000000000E+00+
*       5.0000000000E+00               0
GRID*               1290               06.3750000000E+004.0000000000E+00+
*       5.0000000000E+00               0
GRID*               1291               06.3750000000E+003.0000000000E+00+
*       5.0000000000E+00               0
GRID*               1292               06.3750000000E+002.0000000000E+00+
*       5.0000000000E+00               0
GRID*               1293               06.3750000000E+001.0000000000E+00+
*       5.0000000000E+00               0
GRID*               1163               06.7500000000E+008.0000000000E+00+
*       4.0000000000E+00               0
GRID*               1164               06.7500000000E+008.0000000000E+00+
*       3.0000000000E+00               0
GRID*               1165               06.7500000000E+008.0000000000E+00+
*       2.0000000000E+00               0
GRID*               1166               06.7500000000E+008.0000000000E+00+
*       1.0000000000E+00               0
GRID*               1167               06.3750000000E+008.0000000000E+00+
*       1.0000000000E+00               0
GRID*               1168               06.7500000000E+008.0000000000E+00+
*       5.0000000000E-01               0
GRID*               1169               07.1250000000E+008.0000000000E+00+
*       1.0000000000E+00               0
GRID*               1170               06.3750000000E+008.0000000000E+00+
*       2.0000000000E+00               0
GRID*               1171               06.7500000000E+008.0000000000E+00+
*       1.5000000000E+00               0
GRID*               1172               07.1250000000E+008.0000000000E+00+
*       2.0000000000E+00               0
GRID*               1173               07.1250000000E+008.0000000000E+00+
*       4.0000000000E+00               0
GRID*               1174               06.7500000000E+008.0000000000E+00+
*       4.5000000000E+00               0
GRID*               1175               06.3750000000E+008.0000000000E+00+
*       4.0000000000E+00               0
GRID*               1176               06.3750000000E+008.0000000000E+00+
*       3.0000000000E+00               0
GRID*               1177               06.7500000000E+008.0000000000E+00+
*       2.5000000000E+00               0
GRID*               1178               07.1250000000E+008.0000000000E+00+
*       3.0000000000E+00               0
GRID*               1179               06.7500000000E+008.0000000000E+00+
*       3.5000000000E+00               0
GRID*               1146               06.7500000000E+000.0000000000E+00+
*       2.0000000000E+00               0
GRID*               1147               06.7500000000E+000.0000000000E+00+
*       1.0000000000E+00               0
GRID*               1148               06.7500000000E+000.0000000000E+00+
*       4.0000000000E+00               0
GRID*               1149               06.7500000000E+000.0000000000E+00+
*       3.0000000000E+00               0
GRID*               1150               06.3750000000E+000.0000000000E+00+
*       1.0000000000E+00               0
GRID*               1151               06.7500000000E+000.0000000000E+00+
*       5.0000000000E-01               0
GRID*               1152               07.1250000000E+000.0000000000E+00+
*       1.0000000000E+00               0
GRID*               1153               06.3750000000E+000.0000000000E+00+
*       2.0000000000E+00               0
GRID*               1154               06.7500000000E+000.0000000000E+00+
*       1.5000000000E+00               0
GRID*               1155               07.1250000000E+000.0000000000E+00+
*       2.0000000000E+00               0
GRID*               1156               07.1250000000E+000.0000000000E+00+
*       4.0000000000E+00               0
GRID*               1157               06.7500000000E+000.0000000000E+00+
*       4.5000000000E+00               0
GRID*               1158               06.3750000000E+000.0000000000E+00+
*       4.0000000000E+00               0
GRID*               1159               06.3750000000E+000.0000000000E+00+
*       3.0000000000E+00               0
GRID*               1160               06.7500000000E+000.0000000000E+00+
*       2.5000000000E+00               0
GRID*               1161               07.1250000000E+000.0000000000E+00+
*       3.0000000000E+00               0
GRID*               1162               06.7500000000E+000.0000000000E+00+
*       3.5000000000E+00               0
GRID*                900               06.7500000000E+001.0000000000E+00+
*       4.0000000000E+00               0
GRID*                901               06.7500000000E+001.0000000000E+00+
*       3.0000000000E+00               0
GRID*                902               06.7500000000E+001.0000000000E+00+
*       2.0000000000E+00               0
GRID*                903               06.7500000000E+001.0000000000E+00+
*       1.0000000000E+00               0
GRID*                904               06.7500000000E+002.0000000000E+00+
*       4.0000000000E+00               0
GRID*                905               06.7500000000E+002.0000000000E+00+
*       3.0000000000E+00               0
GRID*                906               06.7500000000E+002.0000000000E+00+
*       2.0000000000E+00               0
GRID*                907               06.7500000000E+002.0000000000E+00+
*       1.0000000000E+00               0
GRID*                908               06.7500000000E+003.0000000000E+00+
*       4.0000000000E+00               0
GRID*                909               06.7500000000E+003.0000000000E+00+
*       3.0000000000E+00               0
GRID*                910               06.7500000000E+003.0000000000E+00+
*       2.0000000000E+00               0
GRID*                911               06.7500000000E+003.0000000000E+00+
*       1.0000000000E+00               0
GRID*                912               06.7500000000E+004.0000000000E+00+
*       4.0000000000E+00               0
GRID*                913               06.7500000000E+004.0000000000E+00+
*       3.0000000000E+00               0
GRID*                914               06.7500000000E+004.0000000000E+00+
*       2.0000000000E+00               0
GRID*                915               06.7500000000E+004.0000000000E+00+
*       1.0000000000E+00               0
GRID*                916               06.7500000000E+005.0000000000E+00+
*       4.0000000000E+00               0
GRID*                917               06.7500000000E+005.0000000000E+00+
*       3.0000000000E+00               0
GRID*                918               06.7500000000E+005.0000000000E+00+
*       2.0000000000E+00               0
GRID*                919               06.7500000000E+005.0000000000E+00+
*       1.0000000000E+00               0
GRID*                920               06.7500000000E+006.0000000000E+00+
*       4.0000000000E+00               0
GRID*                921               06.7500000000E+006.0000000000E+00+
*       3.0000000000E+00               0
GRID*                922               06.7500000000E+006.0000000000E+00+
*       2.0000000000E+00               0
GRID*                923               06.7500000000E+006.0000000000E+00+
*       1.0000000000E+00               0
GRID*                924               06.7500000000E+007.0000000000E+00+
*       4.0000000000E+00               0
GRID*                925               06.7500000000E+007.0000000000E+00+
*       3.0000000000E+00               0
GRID*                926               06.7500000000E+007.0000000000E+00+
*       2.0000000000E+00               0
GRID*                927               06.7500000000E+007.0000000000E+00+
*       1.0000000000E+00               0
GRID*                928               06.7500000000E+005.0000000000E-01+
*       1.0000000000E+00               0
GRID*                929               06.3750000000E+001.0000000000E+00+
*       1.0000000000E+00               0
GRID*                930               06.7500000000E+001.0000000000E+00+
*       5.0000000000E-01               0
GRID*                931               06.7500000000E+001.5000000000E+00+
*       1.0000000000E+00               0
GRID*                932               06.3750000000E+002.0000000000E+00+
*       1.0000000000E+00               0
GRID*                933               06.7500000000E+002.0000000000E+00+
*       5.0000000000E-01               0
GRID*                934               06.7500000000E+002.5000000000E+00+
*       1.0000000000E+00               0
GRID*                935               06.3750000000E+003.0000000000E+00+
*       1.0000000000E+00               0
GRID*                936               06.7500000000E+003.0000000000E+00+
*       5.0000000000E-01               0
GRID*                937               06.7500000000E+003.5000000000E+00+
*       1.0000000000E+00               0
GRID*                938               06.3750000000E+004.0000000000E+00+
*       1.0000000000E+00               0
GRID*                939               06.7500000000E+004.0000000000E+00+
*       5.0000000000E-01               0
GRID*                940               06.7500000000E+004.5000000000E+00+
*       1.0000000000E+00               0
GRID*                941               06.3750000000E+005.0000000000E+00+
*       1.0000000000E+00               0
GRID*                942               06.7500000000E+005.0000000000E+00+
*       5.0000000000E-01               0
GRID*                943               06.7500000000E+005.5000000000E+00+
*       1.0000000000E+00               0
GRID*                944               06.3750000000E+006.0000000000E+00+
*       1.0000000000E+00               0
GRID*                945               06.7500000000E+006.0000000000E+00+
*       5.0000000000E-01               0
GRID*                946               06.7500000000E+006.5000000000E+00+
*       1.0000000000E+00               0
GRID*                947               06.3750000000E+007.0000000000E+00+
*       1.0000000000E+00               0
GRID*                948               06.7500000000E+007.0000000000E+00+
*       5.0000000000E-01               0
GRID*                949               06.7500000000E+007.5000000000E+00+
*       1.0000000000E+00               0
GRID*                950               07.1250000000E+001.0000000000E+00+
*       1.0000000000E+00               0
GRID*                951               07.1250000000E+002.0000000000E+00+
*       1.0000000000E+00               0
GRID*                952               07.1250000000E+003.0000000000E+00+
*       1.0000000000E+00               0
GRID*                953               07.1250000000E+004.0000000000E+00+
*       1.0000000000E+00               0
GRID*                954               07.1250000000E+005.0000000000E+00+
*       1.0000000000E+00               0
GRID*                955               07.1250000000E+006.0000000000E+00+
*       1.0000000000E+00               0
GRID*                956               07.1250000000E+007.0000000000E+00+
*       1.0000000000E+00               0
GRID*                957               06.7500000000E+005.0000000000E-01+
*       2.0000000000E+00               0
GRID*                958               06.3750000000E+001.0000000000E+00+
*       2.0000000000E+00               0
GRID*                959               06.7500000000E+001.0000000000E+00+
*       1.5000000000E+00               0
GRID*                960               06.7500000000E+001.5000000000E+00+
*       2.0000000000E+00               0
GRID*                961               06.3750000000E+002.0000000000E+00+
*       2.0000000000E+00               0
GRID*                962               06.7500000000E+002.0000000000E+00+
*       1.5000000000E+00               0
GRID*                963               06.7500000000E+002.5000000000E+00+
*       2.0000000000E+00               0
GRID*                964               06.3750000000E+003.0000000000E+00+
*       2.0000000000E+00               0
GRID*                965               06.7500000000E+003.0000000000E+00+
*       1.5000000000E+00               0
GRID*                966               06.7500000000E+003.5000000000E+00+
*       2.0000000000E+00               0
GRID*                967               06.3750000000E+004.0000000000E+00+
*       2.0000000000E+00               0
GRID*                968               06.7500000000E+004.0000000000E+00+
*       1.5000000000E+00               0
GRID*                969               06.7500000000E+004.5000000000E+00+
*       2.0000000000E+00               0
GRID*                970               06.3750000000E+005.0000000000E+00+
*       2.0000000000E+00               0
GRID*                971               06.7500000000E+005.0000000000E+00+
*       1.5000000000E+00               0
GRID*                972               06.7500000000E+005.5000000000E+00+
*       2.0000000000E+00               0
GRID*                973               06.3750000000E+006.0000000000E+00+
*       2.0000000000E+00               0
GRID*                974               06.7500000000E+006.0000000000E+00+
*       1.5000000000E+00               0
GRID*                975               06.7500000000E+006.5000000000E+00+
*       2.0000000000E+00               0
GRID*                976               06.3750000000E+007.0000000000E+00+
*       2.0000000000E+00               0
GRID*                977               06.7500000000E+007.0000000000E+00+
*       1.5000000000E+00               0
GRID*                978               06.7500000000E+007.5000000000E+00+
*       2.0000000000E+00               0
GRID*                979               07.1250000000E+001.0000000000E+00+
*       2.0000000000E+00               0
GRID*                980               07.1250000000E+002.0000000000E+00+
*       2.0000000000E+00               0
GRID*                981               07.1250000000E+003.0000000000E+00+
*       2.0000000000E+00               0
GRID*                982               07.1250000000E+004.0000000000E+00+
*       2.0000000000E+00               0
GRID*                983               07.1250000000E+005.0000000000E+00+
*       2.0000000000E+00               0
GRID*                984               07.1250000000E+006.0000000000E+00+
*       2.0000000000E+00               0
GRID*                985               07.1250000000E+007.0000000000E+00+
*       2.0000000000E+00               0
GRID*                986               06.7500000000E+005.0000000000E-01+
*       4.0000000000E+00               0
GRID*                987               07.1250000000E+001.0000000000E+00+
*       4.0000000000E+00               0
GRID*                988               06.7500000000E+001.0000000000E+00+
*       4.5000000000E+00               0
GRID*                989               06.7500000000E+001.5000000000E+00+
*       4.0000000000E+00               0
GRID*                990               07.1250000000E+002.0000000000E+00+
*       4.0000000000E+00               0
GRID*                991               06.7500000000E+002.0000000000E+00+
*       4.5000000000E+00               0
GRID*                992               06.7500000000E+002.5000000000E+00+
*       4.0000000000E+00               0
GRID*                993               07.1250000000E+003.0000000000E+00+
*       4.0000000000E+00               0
GRID*                994               06.7500000000E+003.0000000000E+00+
*       4.5000000000E+00               0
GRID*                995               06.7500000000E+003.5000000000E+00+
*       4.0000000000E+00               0
GRID*                996               07.1250000000E+004.0000000000E+00+
*       4.0000000000E+00               0
GRID*                997               06.7500000000E+004.0000000000E+00+
*       4.5000000000E+00               0
GRID*                998               06.7500000000E+004.5000000000E+00+
*       4.0000000000E+00               0
GRID*                999               07.1250000000E+005.0000000000E+00+
*       4.0000000000E+00               0
GRID*               1000               06.7500000000E+005.0000000000E+00+
*       4.5000000000E+00               0
GRID*               1001               06.7500000000E+005.5000000000E+00+
*       4.0000000000E+00               0
GRID*               1002               07.1250000000E+006.0000000000E+00+
*       4.0000000000E+00               0
GRID*               1003               06.7500000000E+006.0000000000E+00+
*       4.5000000000E+00               0
GRID*               1004               06.7500000000E+006.5000000000E+00+
*       4.0000000000E+00               0
GRID*               1005               07.1250000000E+007.0000000000E+00+
*       4.0000000000E+00               0
GRID*               1006               06.7500000000E+007.0000000000E+00+
*       4.5000000000E+00               0
GRID*               1007               06.7500000000E+007.5000000000E+00+
*       4.0000000000E+00               0
GRID*               1008               06.3750000000E+001.0000000000E+00+
*       4.0000000000E+00               0
GRID*               1009               06.3750000000E+002.0000000000E+00+
*       4.0000000000E+00               0
GRID*               1010               06.3750000000E+003.0000000000E+00+
*       4.0000000000E+00               0
GRID*               1011               06.3750000000E+004.0000000000E+00+
*       4.0000000000E+00               0
GRID*               1012               06.3750000000E+005.0000000000E+00+
*       4.0000000000E+00               0
GRID*               1013               06.3750000000E+006.0000000000E+00+
*       4.0000000000E+00               0
GRID*               1014               06.3750000000E+007.0000000000E+00+
*       4.0000000000E+00               0
GRID*               1015               06.7500000000E+005.0000000000E-01+
*       3.0000000000E+00               0
GRID*               1016               06.3750000000E+001.0000000000E+00+
*       3.0000000000E+00               0
GRID*               1017               06.7500000000E+001.0000000000E+00+
*       2.5000000000E+00               0
GRID*               1018               06.7500000000E+001.5000000000E+00+
*       3.0000000000E+00               0
GRID*               1019               06.3750000000E+002.0000000000E+00+
*       3.0000000000E+00               0
GRID*               1020               06.7500000000E+002.0000000000E+00+
*       2.5000000000E+00               0
GRID*               1021               06.7500000000E+002.5000000000E+00+
*       3.0000000000E+00               0
GRID*               1022               06.3750000000E+003.0000000000E+00+
*       3.0000000000E+00               0
GRID*               1023               06.7500000000E+003.0000000000E+00+
*       2.5000000000E+00               0
GRID*               1024               06.7500000000E+003.5000000000E+00+
*       3.0000000000E+00               0
GRID*               1025               06.3750000000E+004.0000000000E+00+
*       3.0000000000E+00               0
GRID*               1026               06.7500000000E+004.0000000000E+00+
*       2.5000000000E+00               0
GRID*               1027               06.7500000000E+004.5000000000E+00+
*       3.0000000000E+00               0
GRID*               1028               06.3750000000E+005.0000000000E+00+
*       3.0000000000E+00               0
GRID*               1029               06.7500000000E+005.0000000000E+00+
*       2.5000000000E+00               0
GRID*               1030               06.7500000000E+005.5000000000E+00+
*       3.0000000000E+00               0
GRID*               1031               06.3750000000E+006.0000000000E+00+
*       3.0000000000E+00               0
GRID*               1032               06.7500000000E+006.0000000000E+00+
*       2.5000000000E+00               0
GRID*               1033               06.7500000000E+006.5000000000E+00+
*       3.0000000000E+00               0
GRID*               1034               06.3750000000E+007.0000000000E+00+
*       3.0000000000E+00               0
GRID*               1035               06.7500000000E+007.0000000000E+00+
*       2.5000000000E+00               0
GRID*               1036               06.7500000000E+007.5000000000E+00+
*       3.0000000000E+00               0
GRID*               1037               07.1250000000E+001.0000000000E+00+
*       3.0000000000E+00               0
GRID*               1038               07.1250000000E+002.0000000000E+00+
*       3.0000000000E+00               0
GRID*               1039               07.1250000000E+003.0000000000E+00+
*       3.0000000000E+00               0
GRID*               1040               07.1250000000E+004.0000000000E+00+
*       3.0000000000E+00               0
GRID*               1041               07.1250000000E+005.0000000000E+00+
*       3.0000000000E+00               0
GRID*               1042               07.1250000000E+006.0000000000E+00+
*       3.0000000000E+00               0
GRID*               1043               07.1250000000E+007.0000000000E+00+
*       3.0000000000E+00               0
GRID*               1044               06.7500000000E+001.0000000000E+00+
*       3.5000000000E+00               0
GRID*               1045               06.7500000000E+002.0000000000E+00+
*       3.5000000000E+00               0
GRID*               1046               06.7500000000E+003.0000000000E+00+
*       3.5000000000E+00               0
GRID*               1047               06.7500000000E+004.0000000000E+00+
*       3.5000000000E+00               0
GRID*               1048               06.7500000000E+005.0000000000E+00+
*       3.5000000000E+00               0
GRID*               1049               06.7500000000E+006.0000000000E+00+
*       3.5000000000E+00               0
GRID*               1050               06.7500000000E+007.0000000000E+00+
*       3.5000000000E+00               0
GRID*               2616               01.6000000000E+010.0000000000E+00+
*       2.2000000477E+00               0
GRID*               2618               01.6000000000E+018.0000000000E+00+
*       2.2000000477E+00               0
GRID*               2617               01.6000000000E+018.0000000000E+00+
*       1.2999999523E+00               0
GRID*               2615               01.6000000000E+010.0000000000E+00+
*       1.2999999523E+00               0
GRID*               2607               01.5349170201E+010.0000000000E+00+
*       2.2240957938E+00               0
GRID*               2608               01.5349170201E+018.0000000000E+00+
*       2.2240957938E+00               0
GRID*               2612               01.5544976151E+018.0000000000E+00+
*       4.5497262598E-01               0
GRID*               2613               01.5849628351E+018.0000000000E+00+
*       8.3877012192E-01               0
GRID*               2614               01.5161159765E+018.0000000000E+00+
*       1.5034300955E-01               0
GRID*               2609               01.5545005525E+010.0000000000E+00+
*       4.5500202107E-01               0
GRID*               2610               01.5161215782E+010.0000000000E+00+
*       1.5043618992E-01               0
GRID*               2611               01.5849611260E+010.0000000000E+00+
*       8.3876651649E-01               0
GRID*               2575               01.6000000000E+010.0000000000E+00+
*       1.7500000000E+00               0
GRID*               2576               01.6000000000E+011.0000000000E+00+
*       1.2999999523E+00               0
GRID*               2577               01.6000000000E+012.0000000000E+00+
*       1.2999999523E+00               0
GRID*               2578               01.6000000000E+013.0000000000E+00+
*       1.2999999523E+00               0
GRID*               2579               01.6000000000E+014.0000000000E+00+
*       1.2999999523E+00               0
GRID*               2580               01.6000000000E+015.0000000000E+00+
*       1.2999999523E+00               0
GRID*               2581               01.6000000000E+016.0000000000E+00+
*       1.2999999523E+00               0
GRID*               2582               01.6000000000E+017.0000000000E+00+
*       1.2999999523E+00               0
GRID*               2583               01.6000000000E+017.5000000000E+00+
*       1.2999999523E+00               0
GRID*               2584               01.6000000000E+016.5000000000E+00+
*       1.2999999523E+00               0
GRID*               2585               01.6000000000E+015.5000000000E+00+
*       1.2999999523E+00               0
GRID*               2586               01.6000000000E+014.5000000000E+00+
*       1.2999999523E+00               0
GRID*               2587               01.6000000000E+013.5000000000E+00+
*       1.2999999523E+00               0
GRID*               2588               01.6000000000E+012.5000000000E+00+
*       1.2999999523E+00               0
GRID*               2589               01.6000000000E+011.5000000000E+00+
*       1.2999999523E+00               0
GRID*               2590               01.6000000000E+015.0000000000E-01+
*       1.2999999523E+00               0
GRID*               2591               01.6000000000E+011.0000000000E+00+
*       2.2000000477E+00               0
GRID*               2592               01.6000000000E+012.0000000000E+00+
*       2.2000000477E+00               0
GRID*               2593               01.6000000000E+013.0000000000E+00+
*       2.2000000477E+00               0
GRID*               2594               01.6000000000E+014.0000000000E+00+
*       2.2000000477E+00               0
GRID*               2595               01.6000000000E+015.0000000000E+00+
*       2.2000000477E+00               0
GRID*               2596               01.6000000000E+016.0000000000E+00+
*       2.2000000477E+00               0
GRID*               2597               01.6000000000E+017.0000000000E+00+
*       2.2000000477E+00               0
GRID*               2598               01.6000000000E+015.0000000000E-01+
*       2.2000000477E+00               0
GRID*               2599               01.6000000000E+011.5000000000E+00+
*       2.2000000477E+00               0
GRID*               2600               01.6000000000E+012.5000000000E+00+
*       2.2000000477E+00               0
GRID*               2601               01.6000000000E+013.5000000000E+00+
*       2.2000000477E+00               0
GRID*               2602               01.6000000000E+014.5000000000E+00+
*       2.2000000477E+00               0
GRID*               2603               01.6000000000E+015.5000000000E+00+
*       2.2000000477E+00               0
GRID*               2604               01.6000000000E+016.5000000000E+00+
*       2.2000000477E+00               0
GRID*               2605               01.6000000000E+017.5000000000E+00+
*       2.2000000477E+00               0
GRID*               2606               01.6000000000E+018.0000000000E+00+
*       1.7500000000E+00               0
GRID*               2539               01.5544979259E+017.0000000061E+00+
*       4.5497673462E-01               0
GRID*               2540               01.5544982061E+016.0000000046E+00+
*       4.5498133603E-01               0
GRID*               2541               01.5544984975E+015.0000000026E+00+
*       4.5498581537E-01               0
GRID*               2542               01.5544988327E+014.0000000020E+00+
*       4.5498983397E-01               0
GRID*               2543               01.5544992349E+013.0000000014E+00+
*       4.5499318238E-01               0
GRID*               2544               01.5544996825E+011.9999999995E+00+
*       4.5499609843E-01               0
GRID*               2545               01.5545001419E+019.9999999794E-01+
*       4.5499890727E-01               0
GRID*               2546               01.5849619602E+016.9999961966E+00+
*       8.3876043523E-01               0
GRID*               2547               01.5544977757E+017.5000000051E+00+
*       4.5497453480E-01               0
GRID*               2548               01.5849613232E+015.9999962073E+00+
*       8.3876209480E-01               0
GRID*               2549               01.5544980670E+016.5000000056E+00+
*       4.5497902575E-01               0
GRID*               2550               01.5849604931E+014.9999962221E+00+
*       8.3876510145E-01               0
GRID*               2551               01.5544983483E+015.5000000035E+00+
*       4.5498361334E-01               0
GRID*               2552               01.5849596178E+013.9999962375E+00+
*       8.3876840836E-01               0
GRID*               2553               01.5544986576E+014.5000000021E+00+
*       4.5498790284E-01               0
GRID*               2554               01.5849589032E+012.9999962484E+00+
*       8.3877054280E-01               0
GRID*               2555               01.5544990261E+013.5000000019E+00+
*       4.5499158201E-01               0
GRID*               2556               01.5849587593E+011.9999962438E+00+
*       8.3876854257E-01               0
GRID*               2557               01.5544994550E+012.5000000006E+00+
*       4.5499467526E-01               0
GRID*               2558               01.5849606910E+019.9999618704E-01+
*       8.3875217332E-01               0
GRID*               2559               01.5544999132E+011.4999999984E+00+
*       4.5499749250E-01               0
GRID*               2560               01.5545003616E+014.9999999892E-01+
*       4.5500041140E-01               0
GRID*               2561               01.5161217069E+019.9999633323E-01+
*       1.5043533274E-01               0
GRID*               2562               01.5161205785E+011.9999962993E+00+
*       1.5042788715E-01               0
GRID*               2563               01.5161193870E+012.9999962657E+00+
*       1.5042101992E-01               0
GRID*               2564               01.5161182804E+013.9999962402E+00+
*       1.5041302498E-01               0
GRID*               2565               01.5161174217E+014.9999962290E+00+
*       1.5040178748E-01               0
GRID*               2566               01.5161170431E+015.9999962401E+00+
*       1.5038419388E-01               0
GRID*               2567               01.5161178684E+016.9999963036E+00+
*       1.5035125284E-01               0
GRID*               2532               01.5349170201E+011.0000000000E+00+
*       2.2240957938E+00               0
GRID*               2533               01.5349170201E+012.0000000000E+00+
*       2.2240957938E+00               0
GRID*               2534               01.5349170201E+013.0000000000E+00+
*       2.2240957938E+00               0
GRID*               2535               01.5349170201E+014.0000000000E+00+
*       2.2240957938E+00               0
GRID*               2536               01.5349170201E+015.0000000000E+00+
*       2.2240957938E+00               0
GRID*               2537               01.5349170201E+016.0000000000E+00+
*       2.2240957938E+00               0
GRID*               2538               01.5349170201E+017.0000000000E+00+
*       2.2240957938E+00               0
GRID*               2568               01.6000000000E+017.0000000000E+00+
*       1.7500000000E+00               0
GRID*               2569               01.6000000000E+016.0000000000E+00+
*       1.7500000000E+00               0
GRID*               2570               01.6000000000E+015.0000000000E+00+
*       1.7500000000E+00               0
GRID*               2571               01.6000000000E+014.0000000000E+00+
*       1.7500000000E+00               0
GRID*               2572               01.6000000000E+013.0000000000E+00+
*       1.7500000000E+00               0
GRID*               2573               01.6000000000E+012.0000000000E+00+
*       1.7500000000E+00               0
GRID*               2574               01.6000000000E+011.0000000000E+00+
*       1.7500000000E+00               0
GRID*               2531               01.5349999905E+010.0000000000E+00+
*       1.2191050053E+00               0
GRID*               2530               01.5349999905E+018.0000000000E+00+
*       1.2191050053E+00               0
GRID*               2523               01.5349999905E+017.0000000000E+00+
*       1.2191050053E+00               0
GRID*               2524               01.5349999905E+016.0000000000E+00+
*       1.2191050053E+00               0
GRID*               2525               01.5349999905E+015.0000000000E+00+
*       1.2191050053E+00               0
GRID*               2526               01.5349999905E+014.0000000000E+00+
*       1.2191050053E+00               0
GRID*               2527               01.5349999905E+013.0000000000E+00+
*       1.2191050053E+00               0
GRID*               2528               01.5349999905E+012.0000000000E+00+
*       1.2191050053E+00               0
GRID*               2529               01.5349999905E+011.0000000000E+00+
*       1.2191050053E+00               0
GRID*                898               02.8500001431E+003.0000000000E+00+
*       3.9500000477E+00               0
GRID*                899               02.8500001431E+000.0000000000E+00+
*       3.9500000477E+00               0
GRID*                823               02.8500001431E+002.0000000000E+00+
*       3.9500000477E+00               0
GRID*                824               02.8500001431E+001.0000000000E+00+
*       3.9500000477E+00               0
GRID*                825               02.8500001431E+002.5000000000E+00+
*       3.9500000477E+00               0
GRID*                826               02.8500001431E+001.5000000000E+00+
*       3.9500000477E+00               0
GRID*                827               02.8500001431E+005.0000000000E-01+
*       3.9500000477E+00               0
$*
$* ELEMENT CARDS
$*
$*  Mesh Collector: Solid(1)
$*  Mesh: 3d_mesh(1)
CHEXA          1       1     417     828     898     416       2     616+
+            823       3     444     843     443     445      55     690+
+            825      56      57     689      58      59
CHEXA          2       1       2     616     823       3      29     631+
+            824      30      57     689      58      59      60     646+
+            826      61      62     691      63      64
CHEXA          3       1      29     631     824      30     517     873+
+            899     518      62     691      63      64      65     692+
+            827      66     543     874     544     545
CHEXA          4       1     418     829     828     417       1     617+
+            616       2     446     844     444     447      67     722+
+            690      55      68     649      57      69
CHEXA          5       1       1     617     616       2      28     632+
+            631      29      68     649      57      69      70     648+
+            646      60      71     647      62      72
CHEXA          6       1      28     632     631      29     516     872+
+            873     517      71     647      62      72      73     693+
+            692      65     546     875     543     547
CHEXA          7       1     419     830     829     418      16     618+
+            617       1     448     845     446     449      74     721+
+            722      67      75     652      68      76
CHEXA          8       1      16     618     617       1      43     633+
+            632      28      75     652      68      76      77     651+
+            648      70      78     650      71      79
CHEXA          9       1      43     633     632      28     531     871+
+            872     516      78     650      71      79      80     694+
+            693      73     548     876     546     549
CHEXA         10       1     420     831     830     419      18     619+
+            618      16     450     846     448     451      81     720+
+            721      74      82     655      75      83
CHEXA         11       1      18     619     618      16      45     634+
+            633      43      82     655      75      83      84     654+
+            651      77      85     653      78      86
CHEXA         12       1      45     634     633      43     533     870+
+            871     531      85     653      78      86      87     695+
+            694      80     550     877     548     551
CHEXA         13       1     421     832     831     420      19     620+
+            619      18     452     847     450     453      88     719+
+            720      81      89     658      82      90
CHEXA         14       1      19     620     619      18      46     635+
+            634      45      89     658      82      90      91     657+
+            654      84      92     656      85      93
CHEXA         15       1      46     635     634      45     534     869+
+            870     533      92     656      85      93      94     696+
+            695      87     552     878     550     553
CHEXA         16       1     422     833     832     421      20     621+
+            620      19     454     848     452     455      95     718+
+            719      88      96     661      89      97
CHEXA         17       1      20     621     620      19      47     636+
+            635      46      96     661      89      97      98     660+
+            657      91      99     659      92     100
CHEXA         18       1      47     636     635      46     535     868+
+            869     534      99     659      92     100     101     697+
+            696      94     554     879     552     555
CHEXA         19       1     423     834     833     422      21     622+
+            621      20     456     849     454     457     102     717+
+            718      95     103     664      96     104
CHEXA         20       1      21     622     621      20      48     637+
+            636      47     103     664      96     104     105     663+
+            660      98     106     662      99     107
CHEXA         21       1      48     637     636      47     536     867+
+            868     535     106     662      99     107     108     698+
+            697     101     556     880     554     557
CHEXA         22       1     424     835     834     423      22     623+
+            622      21     458     850     456     459     109     716+
+            717     102     110     667     103     111
CHEXA         23       1      22     623     622      21      49     638+
+            637      48     110     667     103     111     112     666+
+            663     105     113     665     106     114
CHEXA         24       1      49     638     637      48     537     866+
+            867     536     113     665     106     114     115     699+
+            698     108     558     881     556     559
CHEXA         25       1     425     836     835     424      23     624+
+            623      22     460     851     458     461     116     715+
+            716     109     117     670     110     118
CHEXA         26       1      23     624     623      22      50     639+
+            638      49     117     670     110     118     119     669+
+            666     112     120     668     113     121
CHEXA         27       1      50     639     638      49     538     865+
+            866     537     120     668     113     121     122     700+
+            699     115     560     882     558     561
CHEXA         28       1     426     837     836     425      24     625+
+            624      23     462     852     460     463     123     714+
+            715     116     124     673     117     125
CHEXA         29       1      24     625     624      23      51     640+
+            639      50     124     673     117     125     126     672+
+            669     119     127     671     120     128
CHEXA         30       1      51     640     639      50     539     864+
+            865     538     127     671     120     128     129     701+
+            700     122     562     883     560     563
CHEXA         31       1     427     838     837     426      25     626+
+            625      24     464     853     462     465     130     713+
+            714     123     131     676     124     132
CHEXA         32       1      25     626     625      24      52     641+
+            640      51     131     676     124     132     133     675+
+            672     126     134     674     127     135
CHEXA         33       1      52     641     640      51     540     863+
+            864     539     134     674     127     135     136     702+
+            701     129     564     884     562     565
CHEXA         34       1     428     839     838     427      26     627+
+            626      25     466     854     464     467     137     712+
+            713     130     138     679     131     139
CHEXA         35       1      26     627     626      25      53     642+
+            641      52     138     679     131     139     140     678+
+            675     133     141     677     134     142
CHEXA         36       1      53     642     641      52     541     862+
+            863     540     141     677     134     142     143     703+
+            702     136     566     885     564     567
CHEXA         37       1     429     840     839     428      27     628+
+            627      26     468     855     466     469     144     711+
+            712     137     145     682     138     146
CHEXA         38       1      27     628     627      26      54     643+
+            642      53     145     682     138     146     147     681+
+            678     140     148     680     141     149
CHEXA         39       1      54     643     642      53     542     861+
+            862     541     148     680     141     149     150     704+
+            703     143     568     886     566     569
CHEXA         40       1     430     841     840     429       5     629+
+            628      27     470     856     468     471     151     710+
+            711     144     152     685     145     153
CHEXA         41       1       5     629     628      27      32     644+
+            643      54     152     685     145     153     154     684+
+            681     147     155     683     148     156
CHEXA         42       1      32     644     643      54     520     860+
+            861     542     155     683     148     156     157     705+
+            704     150     570     887     568     571
CHEXA         43       1     431     842     841     430       4     630+
+            629       5     472     857     470     473     158     709+
+            710     151     159     688     152     160
CHEXA         44       1       4     630     629       5      31     645+
+            644      32     159     688     152     160     161     687+
+            684     154     162     686     155     163
CHEXA         45       1      31     645     644      32     519     859+
+            860     520     162     686     155     163     164     706+
+            705     157     572     888     570     573
CHEXA         46       1     416     898     842     431       3     823+
+            630       4     443     858     472     474      56     825+
+            709     158      58     708     159     165
CHEXA         47       1       3     823     630       4      30     824+
+            645      31      58     708     159     165      61     826+
+            687     161      63     707     162     166
CHEXA         48       1      30     824     645      31     518     899+
+            859     519      63     707     162     166      66     827+
+            706     164     544     889     572     574
CHEXA         49       1     786     787     417     416     353     355+
+              2       3     792     475     445     476     375     376+
+             55      56     366     167      59     168
CHEXA         50       1     353     355       2       3     354     356+
+             29      30     366     167      59     168     364     367+
+             60      61     368     169      64     170
CHEXA         51       1     354     356      29      30     764     765+
+            517     518     368     169      64     170     382     381+
+             65      66     769     575     545     576
CHEXA         52       1     431     785     786     416       4     351+
+            353       3     477     791     476     474     158     374+
+            375      56     171     363     168     165
CHEXA         53       1       4     351     353       3      31     352+
+            354      30     171     363     168     165     161     360+
+            364      61     172     365     170     166
CHEXA         54       1      31     352     354      30     519     763+
+            764     518     172     365     170     166     164     383+
+            382      66     577     770     576     574
CHEXA         55       1     433     814     897     434       7     392+
+            810       6     479     822     478     480     173     408+
+            811     174     175     409     176     177
CHEXA         56       1       7     392     810       6      34     393+
+            809      33     175     409     176     177     178     402+
+            813     179     180     410     181     182
CHEXA         57       1      34     393     809      33     522     795+
+            895     521     180     410     181     182     183     411+
+            812     184     578     799     579     580
CHEXA         58       1     430     429     433     434       5      27+
+              7       6     471     481     480     482     151     144+
+            173     174     153     185     177     186
CHEXA         59       1       5      27       7       6      32      54+
+             34      33     153     185     177     186     154     147+
+            178     179     156     187     182     188
CHEXA         60       1      32      54      34      33     520     542+
+            522     521     156     187     182     188     157     150+
+            183     184     571     581     580     582
CHEXA         61       1     817     816     435     436     386     388+
+              9      10     819     484     483     485     404     406+
+            189     190     394     191     192     193
CHEXA         62       1     386     388       9      10     387     389+
+             36      37     394     191     192     193     397     395+
+            194     195     396     196     197     198
CHEXA         63       1     387     389      36      37     798     797+
+            524     525     396     196     197     198     414     413+
+            199     200     802     583     584     585
CHEXA         64       1     777     896     817     436     320     804+
+            386      10     783     818     485     486     340     806+
+            404     190     341     405     193     201
CHEXA         65       1     320     804     386      10     321     805+
+            387      37     341     405     193     201     333     807+
+            397     195     342     415     198     202
CHEXA         66       1     321     805     387      37     755     894+
+            798     525     342     415     198     202     343     808+
+            414     200     756     803     585     586
CHEXA         67       1     436     435     427     426      10       9+
+             25      24     483     487     465     488     190     189+
+            130     123     192     203     132     204
CHEXA         68       1      10       9      25      24      37      36+
+             52      51     192     203     132     204     195     194+
+            133     126     197     205     135     206
CHEXA         69       1      37      36      52      51     525     524+
+            540     539     197     205     135     206     200     199+
+            136     129     584     587     565     588
CHEXA         70       1     432     776     777     436      11     318+
+            320      10     489     782     486     490     207     339+
+            340     190     208     332     201     209
CHEXA         71       1      11     318     320      10      38     319+
+            321      37     208     332     201     209     210     330+
+            333     195     211     334     202     212
CHEXA         72       1      38     319     321      37     526     754+
+            755     525     211     334     202     212     213     344+
+            343     200     589     757     586     590
CHEXA         73       1     426     425     432     436      24      23+
+             11      10     463     491     490     488     123     116+
+            207     190     125     214     209     204
CHEXA         74       1      24      23      11      10      51      50+
+             38      37     125     214     209     204     126     119+
+            210     195     128     215     212     206
CHEXA         75       1      51      50      38      37     539     538+
+            526     525     128     215     212     206     129     122+
+            213     200     563     591     590     588
CHEXA         76       1     433     429     428     437       7      27+
+             26       8     481     469     492     493     173     144+
+            137     216     185     146     217     218
CHEXA         77       1       7      27      26       8      34      54+
+             53      35     185     146     217     218     178     147+
+            140     219     187     149     220     221
CHEXA         78       1      34      54      53      35     522     542+
+            541     523     187     149     220     221     183     150+
+            143     222     581     569     592     593
CHEXA         79       1     815     814     433     437     390     392+
+              7       8     821     479     493     494     407     408+
+            173     216     401     175     218     223
CHEXA         80       1     390     392       7       8     391     393+
+             34      35     401     175     218     223     399     402+
+            178     219     403     180     221     224
CHEXA         81       1     391     393      34      35     796     795+
+            522     523     403     180     221     224     412     411+
+            183     222     800     578     593     594
CHEXA         82       1     437     428     427     435       8      26+
+             25       9     492     467     487     495     216     137+
+            130     189     217     139     203     225
CHEXA         83       1       8      26      25       9      35      53+
+             52      36     217     139     203     225     219     140+
+            133     194     220     142     205     226
CHEXA         84       1      35      53      52      36     523     541+
+            540     524     220     142     205     226     222     143+
+            136     199     592     567     587     595
CHEXA         85       1     816     815     437     435     388     390+
+              8       9     820     494     495     484     406     407+
+            216     189     398     223     225     191
CHEXA         86       1     388     390       8       9     389     391+
+             35      36     398     223     225     191     395     399+
+            219     194     400     224     226     196
CHEXA         87       1     389     391      35      36     797     796+
+            523     524     400     224     226     196     413     412+
+            222     199     801     594     595     583
CHEXA         88       1     418     417     787     788       1       2+
+            355     357     447     475     793     496      67      55+
+            376     377      69     167     369     227
CHEXA         89       1       1       2     355     357      28      29+
+            356     358      69     167     369     227      70      60+
+            367     370      72     169     371     228
CHEXA         90       1      28      29     356     358     516     517+
+            765     766      72     169     371     228      73      65+
+            381     380     547     575     768     596
CHEXA         91       1     745     744     419     418     282     284+
+             16       1     747     497     449     498     300     302+
+             74      67     290     229      76     230
CHEXA         92       1     282     284      16       1     283     285+
+             43      28     290     229      76     230     293     291+
+             77      70     292     231      79     232
CHEXA         93       1     283     285      43      28     723     724+
+            531     516     292     231      79     232     310     309+
+             80      73     730     597     549     598
CHEXA         94       1     788     893     745     418     357     737+
+            282       1     794     746     498     496     377     739+
+            300      67     378     301     230     227
CHEXA         95       1     357     737     282       1     358     738+
+            283      28     378     301     230     227     370     741+
+            293      70     379     311     232     228
CHEXA         96       1     358     738     283      28     766     890+
+            723     516     379     311     232     228     380     740+
+            310      73     767     731     598     596
CHEXA         97       1     439     438     421     420      17      15+
+             19      18     500     499     453     501     233     234+
+             88      81     235     236      90     237
CHEXA         98       1      17      15      19      18      44      42+
+             46      45     235     236      90     237     238     239+
+             91      84     240     241      93     242
CHEXA         99       1      44      42      46      45     532     530+
+            534     533     240     241      93     242     243     244+
+             94      87     599     600     553     601
CHEXA        100       1     439     744     743     438      17     284+
+            286      15     503     748     502     500     233     302+
+            303     234     245     294     246     235
CHEXA        101       1      17     284     286      15      44     285+
+            287      42     245     294     246     235     238     291+
+            295     239     247     296     248     240
CHEXA        102       1      44     285     287      42     532     724+
+            725     530     247     296     248     240     243     309+
+            308     244     602     729     603     599
CHEXA        103       1     419     744     439     420      16     284+
+             17      18     497     503     501     451      74     302+
+            233      81     229     245     237      83
CHEXA        104       1      16     284      17      18      43     285+
+             44      45     229     245     237      83      77     291+
+            238      84     231     247     242      86
CHEXA        105       1      43     285      44      45     531     724+
+            532     533     231     247     242      86      80     309+
+            243      87     597     602     601     551
CHEXA        106       1     432     425     424     441      11      23+
+             22      12     491     461     504     505     207     116+
+            109     249     214     118     250     251
CHEXA        107       1      11      23      22      12      38      50+
+             49      39     214     118     250     251     210     119+
+            112     252     215     121     253     254
CHEXA        108       1      38      50      49      39     526     538+
+            537     527     215     121     253     254     213     122+
+            115     255     591     561     604     605
CHEXA        109       1     775     776     432     441     316     318+
+             11      12     781     489     505     506     338     339+
+            207     249     329     208     251     256
CHEXA        110       1     316     318      11      12     317     319+
+             38      39     329     208     251     256     327     330+
+            210     252     331     211     254     257
CHEXA        111       1     317     319      38      39     753     754+
+            526     527     331     211     254     257     345     344+
+            213     255     758     589     605     606
CHEXA        112       1     441     424     423     440      12      22+
+             21      13     504     459     507     508     249     109+
+            102     258     250     111     259     260
CHEXA        113       1      12      22      21      13      39      49+
+             48      40     250     111     259     260     252     112+
+            105     261     253     114     262     263
CHEXA        114       1      39      49      48      40     527     537+
+            536     528     253     114     262     263     255     115+
+            108     264     604     559     607     608
CHEXA        115       1     774     775     441     440     314     316+
+             12      13     780     506     508     509     337     338+
+            249     258     326     256     260     265
CHEXA        116       1     314     316      12      13     315     317+
+             39      40     326     256     260     265     323     327+
+            252     261     328     257     263     266
CHEXA        117       1     315     317      39      40     752     753+
+            527     528     328     257     263     266     346     345+
+            255     264     759     606     608     609
CHEXA        118       1     440     423     422     442      13      21+
+             20      14     507     457     510     511     258     102+
+             95     267     259     104     268     269
CHEXA        119       1      13      21      20      14      40      48+
+             47      41     259     104     268     269     261     105+
+             98     270     262     107     271     272
CHEXA        120       1      40      48      47      41     528     536+
+            535     529     262     107     271     272     264     108+
+            101     273     607     557     610     611
CHEXA        121       1     773     774     440     442     312     314+
+             13      14     779     509     511     512     335     337+
+            258     267     322     265     269     274
CHEXA        122       1     312     314      13      14     313     315+
+             40      41     322     265     269     274     325     323+
+            261     270     324     266     272     275
CHEXA        123       1     313     315      40      41     751     752+
+            528     529     324     266     272     275     347     346+
+            264     273     760     609     611     612
CHEXA        124       1     742     892     773     442     288     732+
+            312      14     750     778     512     513     304     734+
+            335     267     305     336     274     276
CHEXA        125       1     288     732     312      14     289     733+
+            313      41     305     336     274     276     298     735+
+            325     270     306     348     275     277
CHEXA        126       1     289     733     313      41     726     891+
+            751     529     306     348     275     277     307     736+
+            347     273     727     761     612     613
CHEXA        127       1     442     422     421     438      14      20+
+             19      15     510     455     499     514     267      95+
+             88     234     268      97     236     278
CHEXA        128       1      14      20      19      15      41      47+
+             46      42     268      97     236     278     270      98+
+             91     239     271     100     241     279
CHEXA        129       1      41      47      46      42     529     535+
+            534     530     271     100     241     279     273     101+
+             94     244     610     555     600     614
CHEXA        130       1     743     742     442     438     286     288+
+             14      15     749     513     514     502     303     304+
+            267     234     297     276     278     246
CHEXA        131       1     286     288      14      15     287     289+
+             41      42     297     276     278     246     295     298+
+            270     239     299     277     279     248
CHEXA        132       1     287     289      41      42     725     726+
+            529     530     299     277     279     248     308     307+
+            273     244     728     613     614     603
CHEXA        133       1     784     785     431     430     349     351+
+              4       5     790     477     473     515     372     374+
+            158     151     359     171     160     280
CHEXA        134       1     349     351       4       5     350     352+
+             31      32     359     171     160     280     362     360+
+            161     154     361     172     163     281
CHEXA        135       1     350     352      31      32     762     763+
+            519     520     361     172     163     281     384     383+
+            164     157     771     577     573     615
CHEXA        136       1     430     434     897     784       5       6+
+            810     349     482     478     789     515     151     174+
+            811     372     186     176     373     280
CHEXA        137       1       5       6     810     349      32      33+
+            809     350     186     176     373     280     154     179+
+            813     362     188     181     385     281
CHEXA        138       1      32      33     809     350     520     521+
+            895     762     188     181     385     281     157     184+
+            812     384     582     579     772     615
$*  Mesh Collector: Solid(2)
$*  Mesh: 3d_mesh(2)
CHEXA        139       2    1372     894     798    1147    1242     805+
+            387     903    1373     803    1150    1151    1257     808+
+            414     928    1258     415     929     930
CHEXA        140       2    1242     805     387     903    1241     804+
+            386     907    1258     415     929     930    1256     807+
+            397     931    1259     405     932     933
CHEXA        141       2    1241     804     386     907    1240     896+
+            817     911    1259     405     932     933    1254     806+
+            404     934    1260     818     935     936
CHEXA        142       2    1240     896     817     911    1239    1354+
+           1192     915    1260     818     935     936    1252    1359+
+           1225     937    1261    1224     938     939
CHEXA        143       2    1239    1354    1192     915    1238    1353+
+           1188     919    1261    1224     938     939    1250    1358+
+           1213     940    1262    1223     941     942
CHEXA        144       2    1238    1353    1188     919    1237    1352+
+           1184     923    1262    1223     941     942    1248    1357+
+           1206     943    1263    1222     944     945
CHEXA        145       2    1237    1352    1184     923    1236    1351+
+           1180     927    1263    1222     944     945    1246    1356+
+           1196     946    1264    1220     947     948
CHEXA        146       2    1236    1351    1180     927    1375    1385+
+           1342    1166    1264    1220     947     948    1244    1355+
+           1221     949    1376    1346    1167    1168
CHEXA        147       2    1297    1382    1372    1147    1078    1309+
+           1242     903    1302    1374    1151    1152    1135    1310+
+           1257     928    1136    1255     930     950
CHEXA        148       2    1078    1309    1242     903    1074    1308+
+           1241     907    1136    1255     930     950    1123    1311+
+           1256     931    1137    1253     933     951
CHEXA        149       2    1074    1308    1241     907    1070    1307+
+           1240     911    1137    1253     933     951    1116    1312+
+           1254     934    1138    1251     936     952
CHEXA        150       2    1070    1307    1240     911    1066    1306+
+           1239     915    1138    1251     936     952    1109    1313+
+           1252     937    1139    1249     939     953
CHEXA        151       2    1066    1306    1239     915    1062    1305+
+           1238     919    1139    1249     939     953    1102    1314+
+           1250     940    1140    1247     942     954
CHEXA        152       2    1062    1305    1238     919    1058    1304+
+           1237     923    1140    1247     942     954    1095    1315+
+           1248     943    1141    1245     945     955
CHEXA        153       2    1058    1304    1237     923    1054    1303+
+           1236     927    1141    1245     945     955    1087    1316+
+           1246     946    1142    1243     948     956
CHEXA        154       2    1054    1303    1236     927    1333    1383+
+           1375    1166    1142    1243     948     956    1143    1317+
+           1244     949    1338    1377    1168    1169
CHEXA        155       2    1147     798     797    1146     903     387+
+            389     902    1150     802    1153    1154     928     414+
+            413     957     929     396     958     959
CHEXA        156       2     903     387     389     902     907     386+
+            388     906     929     396     958     959     931     397+
+            395     960     932     394     961     962
CHEXA        157       2     907     386     388     906     911     817+
+            816     910     932     394     961     962     934     404+
+            406     963     935     819     964     965
CHEXA        158       2     911     817     816     910     915    1192+
+           1193     914     935     819     964     965     937    1225+
+           1226     966     938    1214     967     968
CHEXA        159       2     915    1192    1193     914     919    1188+
+           1189     918     938    1214     967     968     940    1213+
+           1215     969     941    1207     970     971
CHEXA        160       2     919    1188    1189     918     923    1184+
+           1185     922     941    1207     970     971     943    1206+
+           1208     972     944    1197     973     974
CHEXA        161       2     923    1184    1185     922     927    1180+
+           1181     926     944    1197     973     974     946    1196+
+           1198     975     947    1199     976     977
CHEXA        162       2     927    1180    1181     926    1166    1342+
+           1343    1165     947    1199     976     977     949    1221+
+           1235     978    1167    1347    1170    1171
CHEXA        163       2    1296    1297    1147    1146    1077    1078+
+            903     902    1301    1152    1154    1155    1134    1135+
+            928     957    1122     950     959     979
CHEXA        164       2    1077    1078     903     902    1073    1074+
+            907     906    1122     950     959     979    1121    1123+
+            931     960    1115     951     962     980
CHEXA        165       2    1073    1074     907     906    1069    1070+
+            911     910    1115     951     962     980    1114    1116+
+            934     963    1108     952     965     981
CHEXA        166       2    1069    1070     911     910    1065    1066+
+            915     914    1108     952     965     981    1107    1109+
+            937     966    1101     953     968     982
CHEXA        167       2    1065    1066     915     914    1061    1062+
+            919     918    1101     953     968     982    1100    1102+
+            940     969    1094     954     971     983
CHEXA        168       2    1061    1062     919     918    1057    1058+
+            923     922    1094     954     971     983    1093    1095+
+            943     972    1086     955     974     984
CHEXA        169       2    1057    1058     923     922    1053    1054+
+            927     926    1086     955     974     984    1084    1087+
+            946     975    1088     956     977     985
CHEXA        170       2    1053    1054     927     926    1334    1333+
+           1166    1165    1088     956     977     985    1144    1143+
+            949     978    1339    1169    1171    1172
CHEXA        171       2    1369    1381    1294    1148    1265    1318+
+           1075     900    1370    1298    1156    1157    1273    1332+
+           1132     986    1272    1131     987     988
CHEXA        172       2    1265    1318    1075     900    1266    1319+
+           1071     904    1272    1131     987     988    1275    1331+
+           1117     989    1274    1130     990     991
CHEXA        173       2    1266    1319    1071     904    1267    1320+
+           1067     908    1274    1130     990     991    1277    1330+
+           1110     992    1276    1129     993     994
CHEXA        174       2    1267    1320    1067     908    1268    1321+
+           1063     912    1276    1129     993     994    1279    1329+
+           1103     995    1278    1128     996     997
CHEXA        175       2    1268    1321    1063     912    1269    1322+
+           1059     916    1278    1128     996     997    1281    1328+
+           1096     998    1280    1127     999    1000
CHEXA        176       2    1269    1322    1059     916    1270    1323+
+           1055     920    1280    1127     999    1000    1283    1327+
+           1089    1001    1282    1126    1002    1003
CHEXA        177       2    1270    1323    1055     920    1271    1324+
+           1051     924    1282    1126    1002    1003    1285    1326+
+           1079    1004    1284    1124    1005    1006
CHEXA        178       2    1271    1324    1051     924    1378    1384+
+           1336    1163    1284    1124    1005    1006    1286    1325+
+           1125    1007    1379    1337    1173    1174
CHEXA        179       2     795     895    1369    1148     393     809+
+           1265     900     799    1371    1157    1158     411     812+
+           1273     986     410    1293     988    1008
CHEXA        180       2     393     809    1265     900     392     810+
+           1266     904     410    1293     988    1008     402     813+
+           1275     989     409    1292     991    1009
CHEXA        181       2     392     810    1266     904     814     897+
+           1267     908     409    1292     991    1009     408     811+
+           1277     992     822    1291     994    1010
CHEXA        182       2     814     897    1267     908    1195    1360+
+           1268     912     822    1291     994    1010    1228    1364+
+           1279     995    1229    1290     997    1011
CHEXA        183       2    1195    1360    1268     912    1191    1361+
+           1269     916    1229    1290     997    1011    1219    1365+
+           1281     998    1230    1289    1000    1012
CHEXA        184       2    1191    1361    1269     916    1187    1362+
+           1270     920    1230    1289    1000    1012    1212    1366+
+           1283    1001    1231    1288    1003    1013
CHEXA        185       2    1187    1362    1270     920    1183    1363+
+           1271     924    1231    1288    1003    1013    1204    1367+
+           1285    1004    1232    1287    1006    1014
CHEXA        186       2    1183    1363    1271     924    1345    1386+
+           1378    1163    1232    1287    1006    1014    1233    1368+
+           1286    1007    1348    1380    1174    1175
CHEXA        187       2    1146     797     796    1149     902     389+
+            391     901    1153     801    1159    1160     957     413+
+            412    1015     958     400    1016    1017
CHEXA        188       2     902     389     391     901     906     388+
+            390     905     958     400    1016    1017     960     395+
+            399    1018     961     398    1019    1020
CHEXA        189       2     906     388     390     905     910     816+
+            815     909     961     398    1019    1020     963     406+
+            407    1021     964     820    1022    1023
CHEXA        190       2     910     816     815     909     914    1193+
+           1194     913     964     820    1022    1023     966    1226+
+           1227    1024     967    1216    1025    1026
CHEXA        191       2     914    1193    1194     913     918    1189+
+           1190     917     967    1216    1025    1026     969    1215+
+           1217    1027     970    1209    1028    1029
CHEXA        192       2     918    1189    1190     917     922    1185+
+           1186     921     970    1209    1028    1029     972    1208+
+           1210    1030     973    1200    1031    1032
CHEXA        193       2     922    1185    1186     921     926    1181+
+           1182     925     973    1200    1031    1032     975    1198+
+           1201    1033     976    1202    1034    1035
CHEXA        194       2     926    1181    1182     925    1165    1343+
+           1344    1164     976    1202    1034    1035     978    1235+
+           1234    1036    1170    1349    1176    1177
CHEXA        195       2    1295    1296    1146    1149    1076    1077+
+            902     901    1300    1155    1160    1161    1133    1134+
+            957    1015    1120     979    1017    1037
CHEXA        196       2    1076    1077     902     901    1072    1073+
+            906     905    1120     979    1017    1037    1119    1121+
+            960    1018    1113     980    1020    1038
CHEXA        197       2    1072    1073     906     905    1068    1069+
+            910     909    1113     980    1020    1038    1112    1114+
+            963    1021    1106     981    1023    1039
CHEXA        198       2    1068    1069     910     909    1064    1065+
+            914     913    1106     981    1023    1039    1105    1107+
+            966    1024    1099     982    1026    1040
CHEXA        199       2    1064    1065     914     913    1060    1061+
+            918     917    1099     982    1026    1040    1098    1100+
+            969    1027    1092     983    1029    1041
CHEXA        200       2    1060    1061     918     917    1056    1057+
+            922     921    1092     983    1029    1041    1091    1093+
+            972    1030    1083     984    1032    1042
CHEXA        201       2    1056    1057     922     921    1052    1053+
+            926     925    1083     984    1032    1042    1081    1084+
+            975    1033    1085     985    1035    1043
CHEXA        202       2    1052    1053     926     925    1335    1334+
+           1165    1164    1085     985    1035    1043    1145    1144+
+            978    1036    1340    1172    1177    1178
CHEXA        203       2    1149     796     795    1148     901     391+
+            393     900    1159     800    1158    1162    1015     412+
+            411     986    1016     403    1008    1044
CHEXA        204       2     901     391     393     900     905     390+
+            392     904    1016     403    1008    1044    1018     399+
+            402     989    1019     401    1009    1045
CHEXA        205       2     905     390     392     904     909     815+
+            814     908    1019     401    1009    1045    1021     407+
+            408     992    1022     821    1010    1046
CHEXA        206       2     909     815     814     908     913    1194+
+           1195     912    1022     821    1010    1046    1024    1227+
+           1228     995    1025    1218    1011    1047
CHEXA        207       2     913    1194    1195     912     917    1190+
+           1191     916    1025    1218    1011    1047    1027    1217+
+           1219     998    1028    1211    1012    1048
CHEXA        208       2     917    1190    1191     916     921    1186+
+           1187     920    1028    1211    1012    1048    1030    1210+
+           1212    1001    1031    1203    1013    1049
CHEXA        209       2     921    1186    1187     920     925    1182+
+           1183     924    1031    1203    1013    1049    1033    1201+
+           1204    1004    1034    1205    1014    1050
CHEXA        210       2     925    1182    1183     924    1164    1344+
+           1345    1163    1034    1205    1014    1050    1036    1234+
+           1233    1007    1176    1350    1175    1179
CHEXA        211       2    1294    1295    1149    1148    1075    1076+
+            901     900    1299    1161    1162    1156    1132    1133+
+           1015     986    1118    1037    1044     987
CHEXA        212       2    1075    1076     901     900    1071    1072+
+            905     904    1118    1037    1044     987    1117    1119+
+           1018     989    1111    1038    1045     990
CHEXA        213       2    1071    1072     905     904    1067    1068+
+            909     908    1111    1038    1045     990    1110    1112+
+           1021     992    1104    1039    1046     993
CHEXA        214       2    1067    1068     909     908    1063    1064+
+            913     912    1104    1039    1046     993    1103    1105+
+           1024     995    1097    1040    1047     996
CHEXA        215       2    1063    1064     913     912    1059    1060+
+            917     916    1097    1040    1047     996    1096    1098+
+           1027     998    1090    1041    1048     999
CHEXA        216       2    1059    1060     917     916    1055    1056+
+            921     920    1090    1041    1048     999    1089    1091+
+           1030    1001    1080    1042    1049    1002
CHEXA        217       2    1055    1056     921     920    1051    1052+
+            925     924    1080    1042    1049    1002    1079    1081+
+           1033    1004    1082    1043    1050    1005
CHEXA        218       2    1051    1052     925     924    1336    1335+
+           1164    1163    1082    1043    1050    1005    1125    1145+
+           1036    1007    1341    1178    1179    1173
$*  Mesh Collector: Solid(3)
$*  Mesh: 3d_mesh(3)
CHEXA        219       3    2475    2522    2516    2041    2300    2486+
+           2404    1393    2476    2517    2053    2054    2385    2493+
+           2419    1513    2386    2417    1514    1515
CHEXA        220       3    2300    2486    2404    1393    2294    2487+
+           2403    1411    2386    2417    1514    1515    2371    2494+
+           2418    1516    2387    2415    1517    1518
CHEXA        221       3    2294    2487    2403    1411    2288    2488+
+           2402    1429    2387    2415    1517    1518    2360    2495+
+           2416    1519    2388    2413    1520    1521
CHEXA        222       3    2288    2488    2402    1429    2282    2489+
+           2401    1447    2388    2413    1520    1521    2349    2496+
+           2414    1522    2389    2411    1523    1524
CHEXA        223       3    2282    2489    2401    1447    2276    2490+
+           2400    1465    2389    2411    1523    1524    2338    2497+
+           2412    1525    2390    2409    1526    1527
CHEXA        224       3    2276    2490    2400    1465    2270    2491+
+           2399    1483    2390    2409    1526    1527    2327    2498+
+           2410    1528    2391    2407    1529    1530
CHEXA        225       3    2270    2491    2399    1483    2264    2492+
+           2398    1501    2391    2407    1529    1530    2315    2499+
+           2408    1531    2392    2405    1532    1533
CHEXA        226       3    2264    2492    2398    1501    2462    2521+
+           2483    1978    2392    2405    1532    1533    2393    2500+
+           2406    1534    2463    2484    1990    1991
CHEXA        227       3    2041    2516    2520    2442    1393    2404+
+           2507    2104    2053    2518    2449    2055    1513    2419+
+           2515    2253    1514    2420    2252    1535
CHEXA        228       3    1393    2404    2507    2104    1411    2403+
+           2506    2111    1514    2420    2252    1535    1516    2418+
+           2514    2164    1517    2421    2251    1536
CHEXA        229       3    1411    2403    2506    2111    1429    2402+
+           2505    2118    1517    2421    2251    1536    1519    2416+
+           2513    2178    1520    2422    2250    1537
CHEXA        230       3    1429    2402    2505    2118    1447    2401+
+           2504    2125    1520    2422    2250    1537    1522    2414+
+           2512    2191    1523    2423    2249    1538
CHEXA        231       3    1447    2401    2504    2125    1465    2400+
+           2503    2132    1523    2423    2249    1538    1525    2412+
+           2511    2204    1526    2424    2248    1539
CHEXA        232       3    1465    2400    2503    2132    1483    2399+
+           2502    2139    1526    2424    2248    1539    1528    2410+
+           2510    2217    1529    2425    2247    1540
CHEXA        233       3    1483    2399    2502    2139    1501    2398+
+           2501    2146    1529    2425    2247    1540    1531    2408+
+           2509    2230    1532    2426    2246    1541
CHEXA        234       3    1501    2398    2501    2146    1978    2483+
+           2519    2427    1532    2426    2246    1541    1534    2406+
+           2508    2245    1990    2485    2434    1992
CHEXA        235       3    2473    2474    2038    2042    2298    2299+
+           1394    1395    2477    2057    2056    2058    2383    2384+
+           1542    1543    2368    1544    1545    1546
CHEXA        236       3    2298    2299    1394    1395    2292    2293+
+           1412    1413    2368    1544    1545    1546    2367    2369+
+           1547    1548    2357    1549    1550    1551
CHEXA        237       3    2292    2293    1412    1413    2286    2287+
+           1430    1431    2357    1549    1550    1551    2356    2358+
+           1552    1553    2346    1554    1555    1556
CHEXA        238       3    2286    2287    1430    1431    2280    2281+
+           1448    1449    2346    1554    1555    1556    2345    2347+
+           1557    1558    2335    1559    1560    1561
CHEXA        239       3    2280    2281    1448    1449    2274    2275+
+           1466    1467    2335    1559    1560    1561    2334    2336+
+           1562    1563    2324    1564    1565    1566
CHEXA        240       3    2274    2275    1466    1467    2268    2269+
+           1484    1485    2324    1564    1565    1566    2323    2325+
+           1567    1568    2311    1569    1570    1571
CHEXA        241       3    2268    2269    1484    1485    2262    2263+
+           1502    1503    2311    1569    1570    1571    2309    2312+
+           1572    1573    2313    1574    1575    1576
CHEXA        242       3    2262    2263    1502    1503    2460    2461+
+           1979    1980    2313    1574    1575    1576    2395    2394+
+           1577    1578    2464    1993    1994    1995
CHEXA        243       3    2035    2472    2473    2042    1396    2297+
+           2298    1395    2059    2478    2058    2060    1579    2382+
+           2383    1543    1580    2366    1546    1581
CHEXA        244       3    1396    2297    2298    1395    1414    2291+
+           2292    1413    1580    2366    1546    1581    1582    2365+
+           2367    1548    1583    2355    1551    1584
CHEXA        245       3    1414    2291    2292    1413    1432    2285+
+           2286    1431    1583    2355    1551    1584    1585    2354+
+           2356    1553    1586    2344    1556    1587
CHEXA        246       3    1432    2285    2286    1431    1450    2279+
+           2280    1449    1586    2344    1556    1587    1588    2343+
+           2345    1558    1589    2333    1561    1590
CHEXA        247       3    1450    2279    2280    1449    1468    2273+
+           2274    1467    1589    2333    1561    1590    1591    2332+
+           2334    1563    1592    2322    1566    1593
CHEXA        248       3    1468    2273    2274    1467    1486    2267+
+           2268    1485    1592    2322    1566    1593    1594    2321+
+           2323    1568    1595    2308    1571    1596
CHEXA        249       3    1486    2267    2268    1485    1504    2261+
+           2262    1503    1595    2308    1571    1596    1597    2306+
+           2309    1573    1598    2310    1576    1599
CHEXA        250       3    1504    2261    2262    1503    1981    2459+
+           2460    1980    1598    2310    1576    1599    1600    2396+
+           2395    1578    1996    2465    1995    1997
CHEXA        251       3    2042    2038    2039    2043    1395    1394+
+           1404    1403    2056    2062    2061    2063    1543    1542+
+           1601    1602    1545    1603    1604    1605
CHEXA        252       3    1395    1394    1404    1403    1413    1412+
+           1422    1421    1545    1603    1604    1605    1548    1547+
+           1606    1607    1550    1608    1609    1610
CHEXA        253       3    1413    1412    1422    1421    1431    1430+
+           1440    1439    1550    1608    1609    1610    1553    1552+
+           1611    1612    1555    1613    1614    1615
CHEXA        254       3    1431    1430    1440    1439    1449    1448+
+           1458    1457    1555    1613    1614    1615    1558    1557+
+           1616    1617    1560    1618    1619    1620
CHEXA        255       3    1449    1448    1458    1457    1467    1466+
+           1476    1475    1560    1618    1619    1620    1563    1562+
+           1621    1622    1565    1623    1624    1625
CHEXA        256       3    1467    1466    1476    1475    1485    1484+
+           1494    1493    1565    1623    1624    1625    1568    1567+
+           1626    1627    1570    1628    1629    1630
CHEXA        257       3    1485    1484    1494    1493    1503    1502+
+           1512    1511    1570    1628    1629    1630    1573    1572+
+           1631    1632    1575    1633    1634    1635
CHEXA        258       3    1503    1502    1512    1511    1980    1979+
+           1989    1988    1575    1633    1634    1635    1578    1577+
+           1636    1637    1994    1998    1999    2000
CHEXA        259       3    2036    2035    2042    2043    1402    1396+
+           1395    1403    2064    2060    2063    2065    1638    1579+
+           1543    1602    1639    1581    1605    1640
CHEXA        260       3    1402    1396    1395    1403    1420    1414+
+           1413    1421    1639    1581    1605    1640    1641    1582+
+           1548    1607    1642    1584    1610    1643
CHEXA        261       3    1420    1414    1413    1421    1438    1432+
+           1431    1439    1642    1584    1610    1643    1644    1585+
+           1553    1612    1645    1587    1615    1646
CHEXA        262       3    1438    1432    1431    1439    1456    1450+
+           1449    1457    1645    1587    1615    1646    1647    1588+
+           1558    1617    1648    1590    1620    1649
CHEXA        263       3    1456    1450    1449    1457    1474    1468+
+           1467    1475    1648    1590    1620    1649    1650    1591+
+           1563    1622    1651    1593    1625    1652
CHEXA        264       3    1474    1468    1467    1475    1492    1486+
+           1485    1493    1651    1593    1625    1652    1653    1594+
+           1568    1627    1654    1596    1630    1655
CHEXA        265       3    1492    1486    1485    1493    1510    1504+
+           1503    1511    1654    1596    1630    1655    1656    1597+
+           1573    1632    1657    1599    1635    1658
CHEXA        266       3    1510    1504    1503    1511    1987    1981+
+           1980    1988    1657    1599    1635    1658    1659    1600+
+           1578    1637    2001    1997    2000    2002
CHEXA        267       3    2444    2445    2037    2044    2102    2101+
+           1390    1391    2450    2067    2066    2068    2255    2256+
+           1660    1661    2159    1662    1663    1664
CHEXA        268       3    2102    2101    1390    1391    2109    2108+
+           1408    1409    2159    1662    1663    1664    2158    2155+
+           1665    1666    2157    1667    1668    1669
CHEXA        269       3    2109    2108    1408    1409    2116    2115+
+           1426    1427    2157    1667    1668    1669    2174    2172+
+           1670    1671    2173    1672    1673    1674
CHEXA        270       3    2116    2115    1426    1427    2123    2122+
+           1444    1445    2173    1672    1673    1674    2187    2185+
+           1675    1676    2186    1677    1678    1679
CHEXA        271       3    2123    2122    1444    1445    2130    2129+
+           1462    1463    2186    1677    1678    1679    2200    2198+
+           1680    1681    2199    1682    1683    1684
CHEXA        272       3    2130    2129    1462    1463    2137    2136+
+           1480    1481    2199    1682    1683    1684    2213    2211+
+           1685    1686    2212    1687    1688    1689
CHEXA        273       3    2137    2136    1480    1481    2144    2143+
+           1498    1499    2212    1687    1688    1689    2226    2224+
+           1690    1691    2225    1692    1693    1694
CHEXA        274       3    2144    2143    1498    1499    2429    2430+
+           1975    1976    2225    1692    1693    1694    2243    2242+
+           1695    1696    2435    2003    2004    2005
CHEXA        275       3    2040    2443    2444    2044    1392    2103+
+           2102    1391    2069    2451    2068    2070    1697    2254+
+           2255    1661    1698    2162    1664    1699
CHEXA        276       3    1392    2103    2102    1391    1410    2110+
+           2109    1409    1698    2162    1664    1699    1700    2161+
+           2158    1666    1701    2160    1669    1702
CHEXA        277       3    1410    2110    2109    1409    1428    2117+
+           2116    1427    1701    2160    1669    1702    1703    2176+
+           2174    1671    1704    2175    1674    1705
CHEXA        278       3    1428    2117    2116    1427    1446    2124+
+           2123    1445    1704    2175    1674    1705    1706    2189+
+           2187    1676    1707    2188    1679    1708
CHEXA        279       3    1446    2124    2123    1445    1464    2131+
+           2130    1463    1707    2188    1679    1708    1709    2202+
+           2200    1681    1710    2201    1684    1711
CHEXA        280       3    1464    2131    2130    1463    1482    2138+
+           2137    1481    1710    2201    1684    1711    1712    2215+
+           2213    1686    1713    2214    1689    1714
CHEXA        281       3    1482    2138    2137    1481    1500    2145+
+           2144    1499    1713    2214    1689    1714    1715    2228+
+           2226    1691    1716    2227    1694    1717
CHEXA        282       3    1500    2145    2144    1499    1977    2428+
+           2429    1976    1716    2227    1694    1717    1718    2244+
+           2243    1696    2006    2436    2005    2007
CHEXA        283       3    2044    2037    2036    2043    1391    1390+
+           1402    1403    2066    2071    2065    2072    1661    1660+
+           1638    1602    1663    1719    1640    1720
CHEXA        284       3    1391    1390    1402    1403    1409    1408+
+           1420    1421    1663    1719    1640    1720    1666    1665+
+           1641    1607    1668    1721    1643    1722
CHEXA        285       3    1409    1408    1420    1421    1427    1426+
+           1438    1439    1668    1721    1643    1722    1671    1670+
+           1644    1612    1673    1723    1646    1724
CHEXA        286       3    1427    1426    1438    1439    1445    1444+
+           1456    1457    1673    1723    1646    1724    1676    1675+
+           1647    1617    1678    1725    1649    1726
CHEXA        287       3    1445    1444    1456    1457    1463    1462+
+           1474    1475    1678    1725    1649    1726    1681    1680+
+           1650    1622    1683    1727    1652    1728
CHEXA        288       3    1463    1462    1474    1475    1481    1480+
+           1492    1493    1683    1727    1652    1728    1686    1685+
+           1653    1627    1688    1729    1655    1730
CHEXA        289       3    1481    1480    1492    1493    1499    1498+
+           1510    1511    1688    1729    1655    1730    1691    1690+
+           1656    1632    1693    1731    1658    1732
CHEXA        290       3    1499    1498    1510    1511    1976    1975+
+           1987    1988    1693    1731    1658    1732    1696    1695+
+           1659    1637    2004    2008    2002    2009
CHEXA        291       3    2039    2040    2044    2043    1404    1392+
+           1391    1403    2073    2070    2072    2061    1601    1697+
+           1661    1602    1733    1699    1720    1604
CHEXA        292       3    1404    1392    1391    1403    1422    1410+
+           1409    1421    1733    1699    1720    1604    1606    1700+
+           1666    1607    1734    1702    1722    1609
CHEXA        293       3    1422    1410    1409    1421    1440    1428+
+           1427    1439    1734    1702    1722    1609    1611    1703+
+           1671    1612    1735    1705    1724    1614
CHEXA        294       3    1440    1428    1427    1439    1458    1446+
+           1445    1457    1735    1705    1724    1614    1616    1706+
+           1676    1617    1736    1708    1726    1619
CHEXA        295       3    1458    1446    1445    1457    1476    1464+
+           1463    1475    1736    1708    1726    1619    1621    1709+
+           1681    1622    1737    1711    1728    1624
CHEXA        296       3    1476    1464    1463    1475    1494    1482+
+           1481    1493    1737    1711    1728    1624    1626    1712+
+           1686    1627    1738    1714    1730    1629
CHEXA        297       3    1494    1482    1481    1493    1512    1500+
+           1499    1511    1738    1714    1730    1629    1631    1715+
+           1691    1632    1739    1717    1732    1634
CHEXA        298       3    1512    1500    1499    1511    1989    1977+
+           1976    1988    1739    1717    1732    1634    1636    1718+
+           1696    1637    2010    2007    2009    1999
CHEXA        299       3    1333    1383    2470    2046    1054    1303+
+           2295    1398    1338    2479    2074    2075    1143    1317+
+           2380    1740    1142    2379    1741    1742
CHEXA        300       3    1054    1303    2295    1398    1058    1304+
+           2289    1416    1142    2379    1741    1742    1087    1316+
+           2361    1743    1141    2378    1744    1745
CHEXA        301       3    1058    1304    2289    1416    1062    1305+
+           2283    1434    1141    2378    1744    1745    1095    1315+
+           2350    1746    1140    2377    1747    1748
CHEXA        302       3    1062    1305    2283    1434    1066    1306+
+           2277    1452    1140    2377    1747    1748    1102    1314+
+           2339    1749    1139    2376    1750    1751
CHEXA        303       3    1066    1306    2277    1452    1070    1307+
+           2271    1470    1139    2376    1750    1751    1109    1313+
+           2328    1752    1138    2375    1753    1754
CHEXA        304       3    1070    1307    2271    1470    1074    1308+
+           2265    1488    1138    2375    1753    1754    1116    1312+
+           2317    1755    1137    2374    1756    1757
CHEXA        305       3    1074    1308    2265    1488    1078    1309+
+           2259    1506    1137    2374    1756    1757    1123    1311+
+           2301    1758    1136    2372    1759    1760
CHEXA        306       3    1078    1309    2259    1506    1297    1382+
+           2457    1983    1136    2372    1759    1760    1135    1310+
+           2373    1761    1302    2466    2011    2012
CHEXA        307       3    1334    1333    2046    2047    1053    1054+
+           1398    1399    1339    2075    2076    2077    1144    1143+
+           1740    1762    1088    1742    1763    1764
CHEXA        308       3    1053    1054    1398    1399    1057    1058+
+           1416    1417    1088    1742    1763    1764    1084    1087+
+           1743    1765    1086    1745    1766    1767
CHEXA        309       3    1057    1058    1416    1417    1061    1062+
+           1434    1435    1086    1745    1766    1767    1093    1095+
+           1746    1768    1094    1748    1769    1770
CHEXA        310       3    1061    1062    1434    1435    1065    1066+
+           1452    1453    1094    1748    1769    1770    1100    1102+
+           1749    1771    1101    1751    1772    1773
CHEXA        311       3    1065    1066    1452    1453    1069    1070+
+           1470    1471    1101    1751    1772    1773    1107    1109+
+           1752    1774    1108    1754    1775    1776
CHEXA        312       3    1069    1070    1470    1471    1073    1074+
+           1488    1489    1108    1754    1775    1776    1114    1116+
+           1755    1777    1115    1757    1778    1779
CHEXA        313       3    1073    1074    1488    1489    1077    1078+
+           1506    1507    1115    1757    1778    1779    1121    1123+
+           1758    1780    1122    1760    1781    1782
CHEXA        314       3    1077    1078    1506    1507    1296    1297+
+           1983    1984    1122    1760    1781    1782    1134    1135+
+           1761    1783    1301    2012    2013    2014
CHEXA        315       3    1336    1335    2048    2049    1051    1052+
+           1400    1387    1341    2079    2078    2080    1125    1145+
+           1784    1785    1082    1786    1787    1788
CHEXA        316       3    1051    1052    1400    1387    1055    1056+
+           1418    1405    1082    1786    1787    1788    1079    1081+
+           1789    1790    1080    1791    1792    1793
CHEXA        317       3    1055    1056    1418    1405    1059    1060+
+           1436    1423    1080    1791    1792    1793    1089    1091+
+           1794    1795    1090    1796    1797    1798
CHEXA        318       3    1059    1060    1436    1423    1063    1064+
+           1454    1441    1090    1796    1797    1798    1096    1098+
+           1799    1800    1097    1801    1802    1803
CHEXA        319       3    1063    1064    1454    1441    1067    1068+
+           1472    1459    1097    1801    1802    1803    1103    1105+
+           1804    1805    1104    1806    1807    1808
CHEXA        320       3    1067    1068    1472    1459    1071    1072+
+           1490    1477    1104    1806    1807    1808    1110    1112+
+           1809    1810    1111    1811    1812    1813
CHEXA        321       3    1071    1072    1490    1477    1075    1076+
+           1508    1495    1111    1811    1812    1813    1117    1119+
+           1814    1815    1118    1816    1817    1818
CHEXA        322       3    1075    1076    1508    1495    1294    1295+
+           1985    1972    1118    1816    1817    1818    1132    1133+
+           1819    1820    1299    2015    2016    2017
CHEXA        323       3    2448    1384    1336    2049    2098    1324+
+           1051    1387    2452    1337    2080    2081    2232    1325+
+           1125    1785    2231    1124    1788    1821
CHEXA        324       3    2098    1324    1051    1387    2105    1323+
+           1055    1405    2231    1124    1788    1821    2147    1326+
+           1079    1790    2233    1126    1793    1822
CHEXA        325       3    2105    1323    1055    1405    2112    1322+
+           1059    1423    2233    1126    1793    1822    2166    1327+
+           1089    1795    2234    1127    1798    1823
CHEXA        326       3    2112    1322    1059    1423    2119    1321+
+           1063    1441    2234    1127    1798    1823    2179    1328+
+           1096    1800    2235    1128    1803    1824
CHEXA        327       3    2119    1321    1063    1441    2126    1320+
+           1067    1459    2235    1128    1803    1824    2192    1329+
+           1103    1805    2236    1129    1808    1825
CHEXA        328       3    2126    1320    1067    1459    2133    1319+
+           1071    1477    2236    1129    1808    1825    2205    1330+
+           1110    1810    2237    1130    1813    1826
CHEXA        329       3    2133    1319    1071    1477    2140    1318+
+           1075    1495    2237    1130    1813    1826    2218    1331+
+           1117    1815    2238    1131    1818    1827
CHEXA        330       3    2140    1318    1075    1495    2433    1381+
+           1294    1972    2238    1131    1818    1827    2239    1332+
+           1132    1820    2437    1298    2017    2018
CHEXA        331       3    2048    1335    1334    2047    1400    1052+
+           1053    1399    2079    1340    2077    2082    1784    1145+
+           1144    1762    1786    1085    1764    1828
CHEXA        332       3    1400    1052    1053    1399    1418    1056+
+           1057    1417    1786    1085    1764    1828    1789    1081+
+           1084    1765    1791    1083    1767    1829
CHEXA        333       3    1418    1056    1057    1417    1436    1060+
+           1061    1435    1791    1083    1767    1829    1794    1091+
+           1093    1768    1796    1092    1770    1830
CHEXA        334       3    1436    1060    1061    1435    1454    1064+
+           1065    1453    1796    1092    1770    1830    1799    1098+
+           1100    1771    1801    1099    1773    1831
CHEXA        335       3    1454    1064    1065    1453    1472    1068+
+           1069    1471    1801    1099    1773    1831    1804    1105+
+           1107    1774    1806    1106    1776    1832
CHEXA        336       3    1472    1068    1069    1471    1490    1072+
+           1073    1489    1806    1106    1776    1832    1809    1112+
+           1114    1777    1811    1113    1779    1833
CHEXA        337       3    1490    1072    1073    1489    1508    1076+
+           1077    1507    1811    1113    1779    1833    1814    1119+
+           1121    1780    1816    1120    1782    1834
CHEXA        338       3    1508    1076    1077    1507    1985    1295+
+           1296    1984    1816    1120    1782    1834    1819    1133+
+           1134    1783    2015    1300    2014    2019
CHEXA        339       3    2471    2472    2035    2050    2296    2297+
+           1396    1397    2480    2059    2083    2084    2381    2382+
+           1579    1835    2364    1580    1836    1837
CHEXA        340       3    2296    2297    1396    1397    2290    2291+
+           1414    1415    2364    1580    1836    1837    2363    2365+
+           1582    1838    2353    1583    1839    1840
CHEXA        341       3    2290    2291    1414    1415    2284    2285+
+           1432    1433    2353    1583    1839    1840    2352    2354+
+           1585    1841    2342    1586    1842    1843
CHEXA        342       3    2284    2285    1432    1433    2278    2279+
+           1450    1451    2342    1586    1842    1843    2341    2343+
+           1588    1844    2331    1589    1845    1846
CHEXA        343       3    2278    2279    1450    1451    2272    2273+
+           1468    1469    2331    1589    1845    1846    2330    2332+
+           1591    1847    2320    1592    1848    1849
CHEXA        344       3    2272    2273    1468    1469    2266    2267+
+           1486    1487    2320    1592    1848    1849    2319    2321+
+           1594    1850    2305    1595    1851    1852
CHEXA        345       3    2266    2267    1486    1487    2260    2261+
+           1504    1505    2305    1595    1851    1852    2303    2306+
+           1597    1853    2307    1598    1854    1855
CHEXA        346       3    2260    2261    1504    1505    2458    2459+
+           1981    1982    2307    1598    1854    1855    2397    2396+
+           1600    1856    2467    1996    2020    2021
CHEXA        347       3    2046    2470    2471    2050    1398    2295+
+           2296    1397    2074    2481    2084    2085    1740    2380+
+           2381    1835    1741    2362    1837    1857
CHEXA        348       3    1398    2295    2296    1397    1416    2289+
+           2290    1415    1741    2362    1837    1857    1743    2361+
+           2363    1838    1744    2351    1840    1858
CHEXA        349       3    1416    2289    2290    1415    1434    2283+
+           2284    1433    1744    2351    1840    1858    1746    2350+
+           2352    1841    1747    2340    1843    1859
CHEXA        350       3    1434    2283    2284    1433    1452    2277+
+           2278    1451    1747    2340    1843    1859    1749    2339+
+           2341    1844    1750    2329    1846    1860
CHEXA        351       3    1452    2277    2278    1451    1470    2271+
+           2272    1469    1750    2329    1846    1860    1752    2328+
+           2330    1847    1753    2318    1849    1861
CHEXA        352       3    1470    2271    2272    1469    1488    2265+
+           2266    1487    1753    2318    1849    1861    1755    2317+
+           2319    1850    1756    2302    1852    1862
CHEXA        353       3    1488    2265    2266    1487    1506    2259+
+           2260    1505    1756    2302    1852    1862    1758    2301+
+           2303    1853    1759    2304    1855    1863
CHEXA        354       3    1506    2259    2260    1505    1983    2457+
+           2458    1982    1759    2304    1855    1863    1761    2373+
+           2397    1856    2011    2468    2021    2022
CHEXA        355       3    2050    2035    2036    2051    1397    1396+
+           1402    1401    2083    2064    2086    2087    1835    1579+
+           1638    1864    1836    1639    1865    1866
CHEXA        356       3    1397    1396    1402    1401    1415    1414+
+           1420    1419    1836    1639    1865    1866    1838    1582+
+           1641    1867    1839    1642    1868    1869
CHEXA        357       3    1415    1414    1420    1419    1433    1432+
+           1438    1437    1839    1642    1868    1869    1841    1585+
+           1644    1870    1842    1645    1871    1872
CHEXA        358       3    1433    1432    1438    1437    1451    1450+
+           1456    1455    1842    1645    1871    1872    1844    1588+
+           1647    1873    1845    1648    1874    1875
CHEXA        359       3    1451    1450    1456    1455    1469    1468+
+           1474    1473    1845    1648    1874    1875    1847    1591+
+           1650    1876    1848    1651    1877    1878
CHEXA        360       3    1469    1468    1474    1473    1487    1486+
+           1492    1491    1848    1651    1877    1878    1850    1594+
+           1653    1879    1851    1654    1880    1881
CHEXA        361       3    1487    1486    1492    1491    1505    1504+
+           1510    1509    1851    1654    1880    1881    1853    1597+
+           1656    1882    1854    1657    1883    1884
CHEXA        362       3    1505    1504    1510    1509    1982    1981+
+           1987    1986    1854    1657    1883    1884    1856    1600+
+           1659    1885    2020    2001    2023    2024
CHEXA        363       3    2037    2445    2446    2052    1390    2101+
+           2100    1389    2067    2453    2088    2089    1660    2256+
+           2257    1886    1662    2156    1887    1888
CHEXA        364       3    1390    2101    2100    1389    1408    2108+
+           2107    1407    1662    2156    1887    1888    1665    2155+
+           2152    1889    1667    2154    1890    1891
CHEXA        365       3    1408    2108    2107    1407    1426    2115+
+           2114    1425    1667    2154    1890    1891    1670    2172+
+           2170    1892    1672    2171    1893    1894
CHEXA        366       3    1426    2115    2114    1425    1444    2122+
+           2121    1443    1672    2171    1893    1894    1675    2185+
+           2183    1895    1677    2184    1896    1897
CHEXA        367       3    1444    2122    2121    1443    1462    2129+
+           2128    1461    1677    2184    1896    1897    1680    2198+
+           2196    1898    1682    2197    1899    1900
CHEXA        368       3    1462    2129    2128    1461    1480    2136+
+           2135    1479    1682    2197    1899    1900    1685    2211+
+           2209    1901    1687    2210    1902    1903
CHEXA        369       3    1480    2136    2135    1479    1498    2143+
+           2142    1497    1687    2210    1902    1903    1690    2224+
+           2222    1904    1692    2223    1905    1906
CHEXA        370       3    1498    2143    2142    1497    1975    2430+
+           2431    1974    1692    2223    1905    1906    1695    2242+
+           2241    1907    2003    2438    2025    2026
CHEXA        371       3    2051    2036    2037    2052    1401    1402+
+           1390    1389    2086    2071    2089    2090    1864    1638+
+           1660    1886    1865    1719    1888    1908
CHEXA        372       3    1401    1402    1390    1389    1419    1420+
+           1408    1407    1865    1719    1888    1908    1867    1641+
+           1665    1889    1868    1721    1891    1909
CHEXA        373       3    1419    1420    1408    1407    1437    1438+
+           1426    1425    1868    1721    1891    1909    1870    1644+
+           1670    1892    1871    1723    1894    1910
CHEXA        374       3    1437    1438    1426    1425    1455    1456+
+           1444    1443    1871    1723    1894    1910    1873    1647+
+           1675    1895    1874    1725    1897    1911
CHEXA        375       3    1455    1456    1444    1443    1473    1474+
+           1462    1461    1874    1725    1897    1911    1876    1650+
+           1680    1898    1877    1727    1900    1912
CHEXA        376       3    1473    1474    1462    1461    1491    1492+
+           1480    1479    1877    1727    1900    1912    1879    1653+
+           1685    1901    1880    1729    1903    1913
CHEXA        377       3    1491    1492    1480    1479    1509    1510+
+           1498    1497    1880    1729    1903    1913    1882    1656+
+           1690    1904    1883    1731    1906    1914
CHEXA        378       3    1509    1510    1498    1497    1986    1987+
+           1975    1974    1883    1731    1906    1914    1885    1659+
+           1695    1907    2023    2008    2026    2027
CHEXA        379       3    2052    2446    2447    2045    1389    2100+
+           2099    1388    2088    2454    2091    2092    1886    2257+
+           2258    1915    1887    2153    1916    1917
CHEXA        380       3    1389    2100    2099    1388    1407    2107+
+           2106    1406    1887    2153    1916    1917    1889    2152+
+           2149    1918    1890    2151    1919    1920
CHEXA        381       3    1407    2107    2106    1406    1425    2114+
+           2113    1424    1890    2151    1919    1920    1892    2170+
+           2168    1921    1893    2169    1922    1923
CHEXA        382       3    1425    2114    2113    1424    1443    2121+
+           2120    1442    1893    2169    1922    1923    1895    2183+
+           2181    1924    1896    2182    1925    1926
CHEXA        383       3    1443    2121    2120    1442    1461    2128+
+           2127    1460    1896    2182    1925    1926    1898    2196+
+           2194    1927    1899    2195    1928    1929
CHEXA        384       3    1461    2128    2127    1460    1479    2135+
+           2134    1478    1899    2195    1928    1929    1901    2209+
+           2207    1930    1902    2208    1931    1932
CHEXA        385       3    1479    2135    2134    1478    1497    2142+
+           2141    1496    1902    2208    1931    1932    1904    2222+
+           2220    1933    1905    2221    1934    1935
CHEXA        386       3    1497    2142    2141    1496    1974    2431+
+           2432    1973    1905    2221    1934    1935    1907    2241+
+           2240    1936    2025    2439    2028    2029
CHEXA        387       3    2442    2443    2040    2041    2104    2103+
+           1392    1393    2455    2069    2093    2055    2253    2254+
+           1697    1513    2165    1698    1937    1535
CHEXA        388       3    2104    2103    1392    1393    2111    2110+
+           1410    1411    2165    1698    1937    1535    2164    2161+
+           1700    1516    2163    1701    1938    1536
CHEXA        389       3    2111    2110    1410    1411    2118    2117+
+           1428    1429    2163    1701    1938    1536    2178    2176+
+           1703    1519    2177    1704    1939    1537
CHEXA        390       3    2118    2117    1428    1429    2125    2124+
+           1446    1447    2177    1704    1939    1537    2191    2189+
+           1706    1522    2190    1707    1940    1538
CHEXA        391       3    2125    2124    1446    1447    2132    2131+
+           1464    1465    2190    1707    1940    1538    2204    2202+
+           1709    1525    2203    1710    1941    1539
CHEXA        392       3    2132    2131    1464    1465    2139    2138+
+           1482    1483    2203    1710    1941    1539    2217    2215+
+           1712    1528    2216    1713    1942    1540
CHEXA        393       3    2139    2138    1482    1483    2146    2145+
+           1500    1501    2216    1713    1942    1540    2230    2228+
+           1715    1531    2229    1716    1943    1541
CHEXA        394       3    2146    2145    1500    1501    2427    2428+
+           1977    1978    2229    1716    1943    1541    2245    2244+
+           1718    1534    2440    2006    2030    1992
CHEXA        395       3    2040    2039    2038    2041    1392    1404+
+           1394    1393    2073    2062    2094    2093    1697    1601+
+           1542    1513    1733    1603    1944    1937
CHEXA        396       3    1392    1404    1394    1393    1410    1422+
+           1412    1411    1733    1603    1944    1937    1700    1606+
+           1547    1516    1734    1608    1945    1938
CHEXA        397       3    1410    1422    1412    1411    1428    1440+
+           1430    1429    1734    1608    1945    1938    1703    1611+
+           1552    1519    1735    1613    1946    1939
CHEXA        398       3    1428    1440    1430    1429    1446    1458+
+           1448    1447    1735    1613    1946    1939    1706    1616+
+           1557    1522    1736    1618    1947    1940
CHEXA        399       3    1446    1458    1448    1447    1464    1476+
+           1466    1465    1736    1618    1947    1940    1709    1621+
+           1562    1525    1737    1623    1948    1941
CHEXA        400       3    1464    1476    1466    1465    1482    1494+
+           1484    1483    1737    1623    1948    1941    1712    1626+
+           1567    1528    1738    1628    1949    1942
CHEXA        401       3    1482    1494    1484    1483    1500    1512+
+           1502    1501    1738    1628    1949    1942    1715    1631+
+           1572    1531    1739    1633    1950    1943
CHEXA        402       3    1500    1512    1502    1501    1977    1989+
+           1979    1978    1739    1633    1950    1943    1718    1636+
+           1577    1534    2010    1998    2031    2030
CHEXA        403       3    2041    2038    2474    2475    1393    1394+
+           2299    2300    2094    2057    2482    2054    1513    1542+
+           2384    2385    1944    1544    2370    1515
CHEXA        404       3    1393    1394    2299    2300    1411    1412+
+           2293    2294    1944    1544    2370    1515    1516    1547+
+           2369    2371    1945    1549    2359    1518
CHEXA        405       3    1411    1412    2293    2294    1429    1430+
+           2287    2288    1945    1549    2359    1518    1519    1552+
+           2358    2360    1946    1554    2348    1521
CHEXA        406       3    1429    1430    2287    2288    1447    1448+
+           2281    2282    1946    1554    2348    1521    1522    1557+
+           2347    2349    1947    1559    2337    1524
CHEXA        407       3    1447    1448    2281    2282    1465    1466+
+           2275    2276    1947    1559    2337    1524    1525    1562+
+           2336    2338    1948    1564    2326    1527
CHEXA        408       3    1465    1466    2275    2276    1483    1484+
+           2269    2270    1948    1564    2326    1527    1528    1567+
+           2325    2327    1949    1569    2314    1530
CHEXA        409       3    1483    1484    2269    2270    1501    1502+
+           2263    2264    1949    1569    2314    1530    1531    1572+
+           2312    2315    1950    1574    2316    1533
CHEXA        410       3    1501    1502    2263    2264    1978    1979+
+           2461    2462    1950    1574    2316    1533    1534    1577+
+           2394    2393    2031    1993    2469    1991
CHEXA        411       3    2050    2051    2047    2046    1397    1401+
+           1399    1398    2087    2095    2076    2085    1835    1864+
+           1762    1740    1866    1951    1763    1857
CHEXA        412       3    1397    1401    1399    1398    1415    1419+
+           1417    1416    1866    1951    1763    1857    1838    1867+
+           1765    1743    1869    1952    1766    1858
CHEXA        413       3    1415    1419    1417    1416    1433    1437+
+           1435    1434    1869    1952    1766    1858    1841    1870+
+           1768    1746    1872    1953    1769    1859
CHEXA        414       3    1433    1437    1435    1434    1451    1455+
+           1453    1452    1872    1953    1769    1859    1844    1873+
+           1771    1749    1875    1954    1772    1860
CHEXA        415       3    1451    1455    1453    1452    1469    1473+
+           1471    1470    1875    1954    1772    1860    1847    1876+
+           1774    1752    1878    1955    1775    1861
CHEXA        416       3    1469    1473    1471    1470    1487    1491+
+           1489    1488    1878    1955    1775    1861    1850    1879+
+           1777    1755    1881    1956    1778    1862
CHEXA        417       3    1487    1491    1489    1488    1505    1509+
+           1507    1506    1881    1956    1778    1862    1853    1882+
+           1780    1758    1884    1957    1781    1863
CHEXA        418       3    1505    1509    1507    1506    1982    1986+
+           1984    1983    1884    1957    1781    1863    1856    1885+
+           1783    1761    2024    2032    2013    2022
CHEXA        419       3    2051    2052    2045    2047    1401    1389+
+           1388    1399    2090    2092    2096    2095    1864    1886+
+           1915    1762    1908    1917    1958    1951
CHEXA        420       3    1401    1389    1388    1399    1419    1407+
+           1406    1417    1908    1917    1958    1951    1867    1889+
+           1918    1765    1909    1920    1959    1952
CHEXA        421       3    1419    1407    1406    1417    1437    1425+
+           1424    1435    1909    1920    1959    1952    1870    1892+
+           1921    1768    1910    1923    1960    1953
CHEXA        422       3    1437    1425    1424    1435    1455    1443+
+           1442    1453    1910    1923    1960    1953    1873    1895+
+           1924    1771    1911    1926    1961    1954
CHEXA        423       3    1455    1443    1442    1453    1473    1461+
+           1460    1471    1911    1926    1961    1954    1876    1898+
+           1927    1774    1912    1929    1962    1955
CHEXA        424       3    1473    1461    1460    1471    1491    1479+
+           1478    1489    1912    1929    1962    1955    1879    1901+
+           1930    1777    1913    1932    1963    1956
CHEXA        425       3    1491    1479    1478    1489    1509    1497+
+           1496    1507    1913    1932    1963    1956    1882    1904+
+           1933    1780    1914    1935    1964    1957
CHEXA        426       3    1509    1497    1496    1507    1986    1974+
+           1973    1984    1914    1935    1964    1957    1885    1907+
+           1936    1783    2027    2029    2033    2032
CHEXA        427       3    2045    2447    2448    2049    1388    2099+
+           2098    1387    2091    2456    2081    2097    1915    2258+
+           2232    1785    1916    2150    1821    1965
CHEXA        428       3    1388    2099    2098    1387    1406    2106+
+           2105    1405    1916    2150    1821    1965    1918    2149+
+           2147    1790    1919    2148    1822    1966
CHEXA        429       3    1406    2106    2105    1405    1424    2113+
+           2112    1423    1919    2148    1822    1966    1921    2168+
+           2166    1795    1922    2167    1823    1967
CHEXA        430       3    1424    2113    2112    1423    1442    2120+
+           2119    1441    1922    2167    1823    1967    1924    2181+
+           2179    1800    1925    2180    1824    1968
CHEXA        431       3    1442    2120    2119    1441    1460    2127+
+           2126    1459    1925    2180    1824    1968    1927    2194+
+           2192    1805    1928    2193    1825    1969
CHEXA        432       3    1460    2127    2126    1459    1478    2134+
+           2133    1477    1928    2193    1825    1969    1930    2207+
+           2205    1810    1931    2206    1826    1970
CHEXA        433       3    1478    2134    2133    1477    1496    2141+
+           2140    1495    1931    2206    1826    1970    1933    2220+
+           2218    1815    1934    2219    1827    1971
CHEXA        434       3    1496    2141    2140    1495    1973    2432+
+           2433    1972    1934    2219    1827    1971    1936    2240+
+           2239    1820    2028    2441    2018    2034
CHEXA        435       3    2049    2048    2047    2045    1387    1400+
+           1399    1388    2078    2082    2096    2097    1785    1784+
+           1762    1915    1787    1828    1958    1965
CHEXA        436       3    1387    1400    1399    1388    1405    1418+
+           1417    1406    1787    1828    1958    1965    1790    1789+
+           1765    1918    1792    1829    1959    1966
CHEXA        437       3    1405    1418    1417    1406    1423    1436+
+           1435    1424    1792    1829    1959    1966    1795    1794+
+           1768    1921    1797    1830    1960    1967
CHEXA        438       3    1423    1436    1435    1424    1441    1454+
+           1453    1442    1797    1830    1960    1967    1800    1799+
+           1771    1924    1802    1831    1961    1968
CHEXA        439       3    1441    1454    1453    1442    1459    1472+
+           1471    1460    1802    1831    1961    1968    1805    1804+
+           1774    1927    1807    1832    1962    1969
CHEXA        440       3    1459    1472    1471    1460    1477    1490+
+           1489    1478    1807    1832    1962    1969    1810    1809+
+           1777    1930    1812    1833    1963    1970
CHEXA        441       3    1477    1490    1489    1478    1495    1508+
+           1507    1496    1812    1833    1963    1970    1815    1814+
+           1780    1933    1817    1834    1964    1971
CHEXA        442       3    1495    1508    1507    1496    1972    1985+
+           1984    1973    1817    1834    1964    1971    1820    1819+
+           1783    1936    2016    2019    2033    2034
$*  Mesh Collector: Solid(4)
$*  Mesh: 3d_mesh(4)
CHEXA        443       4    2617    2618    2520    2516    2582    2597+
+           2507    2404    2606    2608    2518    2530    2583    2605+
+           2515    2419    2568    2538    2420    2523
CHEXA        444       4    2582    2597    2507    2404    2581    2596+
+           2506    2403    2568    2538    2420    2523    2584    2604+
+           2514    2418    2569    2537    2421    2524
CHEXA        445       4    2581    2596    2506    2403    2580    2595+
+           2505    2402    2569    2537    2421    2524    2585    2603+
+           2513    2416    2570    2536    2422    2525
CHEXA        446       4    2580    2595    2505    2402    2579    2594+
+           2504    2401    2570    2536    2422    2525    2586    2602+
+           2512    2414    2571    2535    2423    2526
CHEXA        447       4    2579    2594    2504    2401    2578    2593+
+           2503    2400    2571    2535    2423    2526    2587    2601+
+           2511    2412    2572    2534    2424    2527
CHEXA        448       4    2578    2593    2503    2400    2577    2592+
+           2502    2399    2572    2534    2424    2527    2588    2600+
+           2510    2410    2573    2533    2425    2528
CHEXA        449       4    2577    2592    2502    2399    2576    2591+
+           2501    2398    2573    2533    2425    2528    2589    2599+
+           2509    2408    2574    2532    2426    2529
CHEXA        450       4    2576    2591    2501    2398    2615    2616+
+           2519    2483    2574    2532    2426    2529    2590    2598+
+           2508    2406    2575    2607    2485    2531
CHEXA        451       4    2522    2612    2617    2516    2486    2539+
+           2582    2404    2614    2613    2530    2517    2493    2547+
+           2583    2419    2567    2546    2523    2417
CHEXA        452       4    2486    2539    2582    2404    2487    2540+
+           2581    2403    2567    2546    2523    2417    2494    2549+
+           2584    2418    2566    2548    2524    2415
CHEXA        453       4    2487    2540    2581    2403    2488    2541+
+           2580    2402    2566    2548    2524    2415    2495    2551+
+           2585    2416    2565    2550    2525    2413
CHEXA        454       4    2488    2541    2580    2402    2489    2542+
+           2579    2401    2565    2550    2525    2413    2496    2553+
+           2586    2414    2564    2552    2526    2411
CHEXA        455       4    2489    2542    2579    2401    2490    2543+
+           2578    2400    2564    2552    2526    2411    2497    2555+
+           2587    2412    2563    2554    2527    2409
CHEXA        456       4    2490    2543    2578    2400    2491    2544+
+           2577    2399    2563    2554    2527    2409    2498    2557+
+           2588    2410    2562    2556    2528    2407
CHEXA        457       4    2491    2544    2577    2399    2492    2545+
+           2576    2398    2562    2556    2528    2407    2499    2559+
+           2589    2408    2561    2558    2529    2405
CHEXA        458       4    2492    2545    2576    2398    2521    2609+
+           2615    2483    2561    2558    2529    2405    2500    2560+
+           2590    2406    2610    2611    2531    2484
$*
$* PROPERTY CARDS
$*
$*  Property: PSOLID1
PSOLID         1       1       0                           SMECH
$*  Property: PSOLID2
PSOLID         2       1       0                           SMECH
$*  Property: PSOLID3
PSOLID         3       1       0                           SMECH
$*  Property: PSOLID4
PSOLID         4       1       0                           SMECH
$*
$* MATERIAL CARDS
$*
$*  Material: AISI_SS_304-Annealed
MAT1           11.9000+8        0.3000007.9000-61.6600-5
$*
$* LOAD AND CONSTRAINT CARDS
$*
$*  Constraint: Fixed(1)
SPC            1     616  123456  0.0000
SPC            1     617  123456  0.0000
SPC            1     618  123456  0.0000
SPC            1     619  123456  0.0000
SPC            1     620  123456  0.0000
SPC            1     621  123456  0.0000
SPC            1     622  123456  0.0000
SPC            1     623  123456  0.0000
SPC            1     624  123456  0.0000
SPC            1     625  123456  0.0000
SPC            1     626  123456  0.0000
SPC            1     627  123456  0.0000
SPC            1     628  123456  0.0000
SPC            1     629  123456  0.0000
SPC            1     630  123456  0.0000
SPC            1     631  123456  0.0000
SPC            1     632  123456  0.0000
SPC            1     633  123456  0.0000
SPC            1     634  123456  0.0000
SPC            1     635  123456  0.0000
SPC            1     636  123456  0.0000
SPC            1     637  123456  0.0000
SPC            1     638  123456  0.0000
SPC            1     639  123456  0.0000
SPC            1     640  123456  0.0000
SPC            1     641  123456  0.0000
SPC            1     642  123456  0.0000
SPC            1     643  123456  0.0000
SPC            1     644  123456  0.0000
SPC            1     645  123456  0.0000
SPC            1     646  123456  0.0000
SPC            1     647  123456  0.0000
SPC            1     648  123456  0.0000
SPC            1     649  123456  0.0000
SPC            1     650  123456  0.0000
SPC            1     651  123456  0.0000
SPC            1     652  123456  0.0000
SPC            1     653  123456  0.0000
SPC            1     654  123456  0.0000
SPC            1     655  123456  0.0000
SPC            1     656  123456  0.0000
SPC            1     657  123456  0.0000
SPC            1     658  123456  0.0000
SPC            1     659  123456  0.0000
SPC            1     660  123456  0.0000
SPC            1     661  123456  0.0000
SPC            1     662  123456  0.0000
SPC            1     663  123456  0.0000
SPC            1     664  123456  0.0000
SPC            1     665  123456  0.0000
SPC            1     666  123456  0.0000
SPC            1     667  123456  0.0000
SPC            1     668  123456  0.0000
SPC            1     669  123456  0.0000
SPC            1     670  123456  0.0000
SPC            1     671  123456  0.0000
SPC            1     672  123456  0.0000
SPC            1     673  123456  0.0000
SPC            1     674  123456  0.0000
SPC            1     675  123456  0.0000
SPC            1     676  123456  0.0000
SPC            1     677  123456  0.0000
SPC            1     678  123456  0.0000
SPC            1     679  123456  0.0000
SPC            1     680  123456  0.0000
SPC            1     681  123456  0.0000
SPC            1     682  123456  0.0000
SPC            1     683  123456  0.0000
SPC            1     684  123456  0.0000
SPC            1     685  123456  0.0000
SPC            1     686  123456  0.0000
SPC            1     687  123456  0.0000
SPC            1     688  123456  0.0000
SPC            1     689  123456  0.0000
SPC            1     690  123456  0.0000
SPC            1     691  123456  0.0000
SPC            1     692  123456  0.0000
SPC            1     693  123456  0.0000
SPC            1     694  123456  0.0000
SPC            1     695  123456  0.0000
SPC            1     696  123456  0.0000
SPC            1     697  123456  0.0000
SPC            1     698  123456  0.0000
SPC            1     699  123456  0.0000
SPC            1     700  123456  0.0000
SPC            1     701  123456  0.0000
SPC            1     702  123456  0.0000
SPC            1     703  123456  0.0000
SPC            1     704  123456  0.0000
SPC            1     705  123456  0.0000
SPC            1     706  123456  0.0000
SPC            1     707  123456  0.0000
SPC            1     708  123456  0.0000
SPC            1     709  123456  0.0000
SPC            1     710  123456  0.0000
SPC            1     711  123456  0.0000
SPC            1     712  123456  0.0000
SPC            1     713  123456  0.0000
SPC            1     714  123456  0.0000
SPC            1     715  123456  0.0000
SPC            1     716  123456  0.0000
SPC            1     717  123456  0.0000
SPC            1     718  123456  0.0000
SPC            1     719  123456  0.0000
SPC            1     720  123456  0.0000
SPC            1     721  123456  0.0000
SPC            1     722  123456  0.0000
SPC            1     823  123456  0.0000
SPC            1     824  123456  0.0000
SPC            1     825  123456  0.0000
SPC            1     826  123456  0.0000
SPC            1     827  123456  0.0000
SPC            1     828  123456  0.0000
SPC            1     829  123456  0.0000
SPC            1     830  123456  0.0000
SPC            1     831  123456  0.0000
SPC            1     832  123456  0.0000
SPC            1     833  123456  0.0000
SPC            1     834  123456  0.0000
SPC            1     835  123456  0.0000
SPC            1     836  123456  0.0000
SPC            1     837  123456  0.0000
SPC            1     838  123456  0.0000
SPC            1     839  123456  0.0000
SPC            1     840  123456  0.0000
SPC            1     841  123456  0.0000
SPC            1     842  123456  0.0000
SPC            1     843  123456  0.0000
SPC            1     844  123456  0.0000
SPC            1     845  123456  0.0000
SPC            1     846  123456  0.0000
SPC            1     847  123456  0.0000
SPC            1     848  123456  0.0000
SPC            1     849  123456  0.0000
SPC            1     850  123456  0.0000
SPC            1     851  123456  0.0000
SPC            1     852  123456  0.0000
SPC            1     853  123456  0.0000
SPC            1     854  123456  0.0000
SPC            1     855  123456  0.0000
SPC            1     856  123456  0.0000
SPC            1     857  123456  0.0000
SPC            1     858  123456  0.0000
SPC            1     859  123456  0.0000
SPC            1     860  123456  0.0000
SPC            1     861  123456  0.0000
SPC            1     862  123456  0.0000
SPC            1     863  123456  0.0000
SPC            1     864  123456  0.0000
SPC            1     865  123456  0.0000
SPC            1     866  123456  0.0000
SPC            1     867  123456  0.0000
SPC            1     868  123456  0.0000
SPC            1     869  123456  0.0000
SPC            1     870  123456  0.0000
SPC            1     871  123456  0.0000
SPC            1     872  123456  0.0000
SPC            1     873  123456  0.0000
SPC            1     874  123456  0.0000
SPC            1     875  123456  0.0000
SPC            1     876  123456  0.0000
SPC            1     877  123456  0.0000
SPC            1     878  123456  0.0000
SPC            1     879  123456  0.0000
SPC            1     880  123456  0.0000
SPC            1     881  123456  0.0000
SPC            1     882  123456  0.0000
SPC            1     883  123456  0.0000
SPC            1     884  123456  0.0000
SPC            1     885  123456  0.0000
SPC            1     886  123456  0.0000
SPC            1     887  123456  0.0000
SPC            1     888  123456  0.0000
SPC            1     889  123456  0.0000
SPC            1     898  123456  0.0000
SPC            1     899  123456  0.0000
$*  Load: Force(1)
FORCE          2    2568       0 6500.00-1.00000  0.0000  0.0000
FORCE          2    2569       0 6500.00-1.00000  0.0000  0.0000
FORCE          2    2570       0 6500.00-1.00000  0.0000  0.0000
FORCE          2    2571       0 6500.00-1.00000  0.0000  0.0000
FORCE          2    2572       0 6500.00-1.00000  0.0000  0.0000
FORCE          2    2573       0 6500.00-1.00000  0.0000  0.0000
FORCE          2    2574       0 6500.00-1.00000  0.0000  0.0000
FORCE          2    2575       0 3250.00-1.00000  0.0000  0.0000
FORCE          2    2576       0 1625.001.000000  0.0000  0.0000
FORCE          2    2577       0 1625.001.000000  0.0000  0.0000
FORCE          2    2578       0 1625.001.000000  0.0000  0.0000
FORCE          2    2579       0 1625.001.000000  0.0000  0.0000
FORCE          2    2580       0 1625.001.000000  0.0000  0.0000
FORCE          2    2581       0 1625.001.000000  0.0000  0.0000
FORCE          2    2582       0 1625.001.000000  0.0000  0.0000
FORCE          2    2583       0 3250.00-1.00000  0.0000  0.0000
FORCE          2    2584       0 3250.00-1.00000  0.0000  0.0000
FORCE          2    2585       0 3250.00-1.00000  0.0000  0.0000
FORCE          2    2586       0 3250.00-1.00000  0.0000  0.0000
FORCE          2    2587       0 3250.00-1.00000  0.0000  0.0000
FORCE          2    2588       0 3250.00-1.00000  0.0000  0.0000
FORCE          2    2589       0 3250.00-1.00000  0.0000  0.0000
FORCE          2    2590       0 3250.00-1.00000  0.0000  0.0000
FORCE          2    2591       0 1625.001.000000  0.0000  0.0000
FORCE          2    2592       0 1625.001.000000  0.0000  0.0000
FORCE          2    2593       0 1625.001.000000  0.0000  0.0000
FORCE          2    2594       0 1625.001.000000  0.0000  0.0000
FORCE          2    2595       0 1625.001.000000  0.0000  0.0000
FORCE          2    2596       0 1625.001.000000  0.0000  0.0000
FORCE          2    2597       0 1625.001.000000  0.0000  0.0000
FORCE          2    2598       0 3250.00-1.00000  0.0000  0.0000
FORCE          2    2599       0 3250.00-1.00000  0.0000  0.0000
FORCE          2    2600       0 3250.00-1.00000  0.0000  0.0000
FORCE          2    2601       0 3250.00-1.00000  0.0000  0.0000
FORCE          2    2602       0 3250.00-1.00000  0.0000  0.0000
FORCE          2    2603       0 3250.00-1.00000  0.0000  0.0000
FORCE          2    2604       0 3250.00-1.00000  0.0000  0.0000
FORCE          2    2605       0 3250.00-1.00000  0.0000  0.0000
FORCE          2    2606       0 3250.00-1.00000  0.0000  0.0000
FORCE          2    2615       0812.50001.000000  0.0000  0.0000
FORCE          2    2616       0812.50001.000000  0.0000  0.0000
FORCE          2    2617       0812.50001.000000  0.0000  0.0000
FORCE          2    2618       0812.50001.000000  0.0000  0.0000
ENDDATA 333e9aa1
